%nproc=1
%mem=1GB
%Chk=1.chk
#T PM6 OPT

c(s1)cc(c2ccccc2)c1~c(s1)c(cc(N(=O)=O)c(N(=O)=O)c2)c2c1_2_3

0  1
C           6.47769         1.92425         2.49003
S           6.40864         0.22114         2.41992
C           5.08959         0.22726         1.31276
C           4.75735         1.54369         1.00521
C           5.53204         2.55094         1.70178
C           5.40568         4.02582         1.62936
C           6.24308         4.87983         2.37199
C           6.12014         6.27357         2.30291
C           5.15233         6.84874         1.48953
C           4.30861         6.02891         0.74699
C           4.43357         4.63260         0.81612
C           4.48878        -1.02002         0.82407
S           5.43820        -2.44103         0.64514
C           3.19612        -1.31754         0.44238
C           2.13188        -0.39483         0.52257
C           0.87548        -0.89109         0.07142
N          -0.20497         0.09302         0.13118
O          -0.42419         0.60864         1.23628
O          -0.70764         0.44546        -0.94163
C           0.70322        -2.20866        -0.44706
N          -0.60016        -2.76538        -0.84107
O          -1.62715        -2.09765        -0.64318
O          -0.61843        -3.91545        -1.30017
C           1.79405        -3.12904        -0.55655
C           3.04061        -2.69263        -0.06843
C           4.19618        -3.48768         0.01002
C           4.49925        -4.94917        -0.29126
S           3.24867        -6.05656        -0.83560
C           5.67354        -5.71433        -0.18584
C           6.94416        -5.21538         0.18686
C           7.96851        -6.18883         0.37718
N           9.21570        -5.63941         0.89281
O           9.15801        -5.10256         2.00747
O          10.19585        -5.65063         0.13983
C           7.79131        -7.57570         0.12928
N           8.89694        -8.54582         0.29857
O           9.96731        -8.18531         0.74494
O           8.64360        -9.73081        -0.02590
C           6.53752        -8.09833        -0.30990
C           5.48877        -7.15652        -0.46079
C           4.21417        -7.48685        -0.90648
C           3.67415        -8.77362        -1.41805
S           2.05591        -9.31073        -1.24691
C           4.36031        -9.73508        -2.12904
C           3.62892       -10.95492        -2.48222
C           4.34916       -12.06262        -3.16466
C           5.71978       -12.29323        -2.88120
C           6.41601       -13.38394        -3.41762
C           5.75020       -14.28109        -4.23824
C           4.43299       -14.01654        -4.61072
C           3.75494       -12.88848        -4.11771
C           2.27222       -10.87601        -2.08751
C           1.04197       -11.75530        -2.22800
S          -0.52663       -10.96599        -2.44106
C           0.78777       -13.13238        -2.22626
C           1.75442       -14.13884        -1.99037
C           1.30501       -15.49475        -2.18531
N           2.33234       -16.54702        -2.11853
O           3.49035       -16.18822        -1.86046
O           2.02144       -17.71232        -2.37044
C          -0.03934       -15.81321        -2.51177
N          -0.52946       -17.18316        -2.65610
O          -0.54243       -17.88495        -1.63795
O          -1.01522       -17.48646        -3.75504
C          -1.03959       -14.83398        -2.67301
C          -0.61912       -13.49393        -2.52783
C          -1.48058       -12.40672        -2.59805
C          -2.95161       -12.31435        -2.77491
S          -3.96844       -13.69345        -2.97626
C          -3.76637       -11.18160        -2.79375
C          -5.17110       -11.44803        -3.03778
C          -6.28256       -10.49842        -3.14841
C          -6.26579        -9.29632        -2.43170
C          -7.32681        -8.39029        -2.53692
C          -8.41645        -8.67460        -3.35792
C          -8.45070        -9.86705        -4.07323
C          -7.39143       -10.77192        -3.96965
C          -5.38625       -12.80149        -3.15728
H           7.22998         2.36591         3.12777
H           3.97808         1.79712         0.30058
H           7.01620         4.49100         3.02714
H           6.78455         6.90541         2.88794
H           5.05656         7.93045         1.43567
H           3.54884         6.47669         0.11024
H           3.74856         4.04171         0.21610
H           2.22541         0.61507         0.90791
H           1.63975        -4.09662        -1.00458
H           7.20079        -4.17496         0.32019
H           6.41120        -9.16092        -0.48860
H           5.39808        -9.59489        -2.40537
H           6.28935       -11.63489        -2.22774
H           7.46659       -13.54101        -3.17705
H           6.25964       -15.17288        -4.59786
H           3.92878       -14.70199        -5.28694
H           2.75402       -12.68293        -4.48187
H           2.77306       -13.91441        -1.69659
H          -2.03862       -15.17354        -2.90220
H          -3.38073       -10.17838        -2.66357
H          -5.43702        -9.05252        -1.77258
H          -7.30233        -7.46020        -1.97481
H          -9.23749        -7.96711        -3.44078
H          -9.29761       -10.09411        -4.71596
H          -7.44673       -11.68879        -4.55183
H          -6.31476       -13.32965        -3.33202


--Link1--
%nproc=1
%mem=1GB
%Chk=1.chk
%NoSave
# Geom=AllCheck ZINDO(NStates=15,Singlets)
