%nproc=1
%mem=1GB
%Chk=11.chk
#T PM6 OPT

c(s1)cc(c2ccccc2)c1~c(s1)c(C(=O)OC2(=O))c2c1_2_5

0  1
C          -5.59915         2.72338        -2.36309
S          -5.30282         1.83961        -0.91392
C          -5.01615         2.02449        -3.37322
C          -4.62343         2.29768        -4.71842
O          -4.72097         3.36261        -5.30467
O          -4.07299         1.14217        -5.22235
C          -4.12255         0.13962        -4.26158
O          -3.72373        -0.99652        -4.45343
C          -4.70176         0.69305        -3.06117
C          -5.02610         0.31737        -1.76549
C          -4.93588        -0.98025        -1.06435
S          -3.60917        -2.00524        -1.54464
C          -3.91902        -3.25015        -0.42700
C          -5.05583        -2.91398         0.28199
C          -5.69148        -1.62342        -0.05666
C          -6.96757        -1.17216         0.60998
C          -7.63963         0.02143         0.33700
C          -8.82156         0.42433         0.97565
C          -9.44129        -0.42384         1.86885
C          -8.84085        -1.64146         2.15137
C          -7.61626        -1.99579         1.55184
C          -3.07199        -4.44479        -0.30239
S          -3.64038        -5.97337         0.27565
C          -1.72322        -4.60243        -0.45643
C          -0.61890        -3.70578        -0.71632
O          -0.64485        -2.52583        -0.90718
O           0.53125        -4.47116        -0.63462
C           0.23030        -5.77192        -0.25951
O           1.06406        -6.56380         0.09549
C          -1.21416        -5.91143        -0.22717
C          -2.16526        -6.91291        -0.04613
C          -2.08193        -8.44387         0.00592
S          -0.47565        -9.21820        -0.15339
C          -0.99747       -10.85329         0.01317
C          -2.37819       -10.82143         0.12994
C          -3.03505        -9.49581         0.12655
C          -4.52500        -9.39414         0.28871
C          -5.24228       -10.34780         1.04104
C          -6.62375       -10.22148         1.28694
C          -7.33503        -9.14736         0.76897
C          -6.67258        -8.24383        -0.04611
C          -5.30492        -8.41133        -0.32226
C          -0.10610       -12.06467         0.01651
S          -0.73947       -13.65451         0.18243
C           1.27341       -12.19275        -0.09229
C           1.82869       -13.58336        -0.06707
C           3.30571       -13.85282        -0.26095
C           4.00062       -14.87127         0.39314
C           5.36637       -15.15071         0.25909
C           6.13309       -14.35576        -0.55682
C           5.50929       -13.30053        -1.21822
C           4.12309       -13.03885        -1.05932
C           0.78295       -14.52835         0.13025
C           0.69458       -16.02824         0.21068
S           1.98543       -17.09722         0.74101
C          -0.36146       -16.93187         0.13010
C          -1.79995       -16.96996         0.13873
O          -2.57369       -16.05443         0.35932
O          -2.20546       -18.28758        -0.04941
C          -1.10717       -19.10397        -0.17388
O          -1.11262       -20.31419        -0.32004
C           0.03847       -18.27438        -0.04556
C           1.37630       -18.48493        -0.01494
H          -6.00305         3.72952        -2.36679
H          -5.43242        -3.57585         1.04957
H          -7.31953         0.69789        -0.42409
H          -9.25860         1.39048         0.73263
H         -10.38883        -0.14500         2.31935
H          -9.32737        -2.32993         2.83697
H          -7.21598        -2.96203         1.83829
H          -2.94557       -11.74141         0.22321
H          -4.75266       -11.22393         1.45870
H          -7.13724       -10.95816         1.90093
H          -8.39558        -9.02761         0.97746
H          -7.20842        -7.40039        -0.47550
H          -4.86595        -7.72322        -1.03166
H           1.90952       -11.32104        -0.19340
H           3.51728       -15.49951         1.10266
H           5.79672       -15.98266         0.81357
H           7.19495       -14.55894        -0.66470
H           6.10898       -12.67646        -1.87516
H           3.71581       -12.17866        -1.58309
H           1.96076       -19.38683        -0.15251


--Link1--
%nproc=1
%mem=1GB
%Chk=11.chk
%NoSave
# Geom=AllCheck ZINDO(NStates=15,Singlets)
