%nproc=1
%mem=1GB
%Chk=12.chk
#T PM6 OPT

C=C(C1=O)C(=O)C1~C(=C1C(=O)OC(=O)C12)C3C(=O)OC(=O)C=3C=2_2_0

0  1
C          -3.17826        -4.68115         3.13043
C          -2.57713        -3.58049         2.55234
C          -2.57475        -2.21464         3.02216
O          -3.03501        -1.81912         4.07132
O          -1.94020        -1.50007         2.06058
C          -1.52204        -2.27895         1.02533
O          -1.00790        -1.89915        -0.00566
C          -1.85563        -3.65118         1.37681
C          -2.95516        -5.87585         2.47088
C          -3.50508        -7.17533         2.78087
O          -4.34195        -7.41089         3.62354
O          -2.91762        -8.03419         1.91374
C          -2.02427        -7.41616         1.08741
O          -1.26086        -7.95299         0.32650
C          -2.14531        -5.98802         1.35678
C          -1.58593        -4.86882         0.73472
C          -0.76991        -4.93700        -0.48630
C           0.55928        -5.05743        -0.50977
C           1.61645        -5.01223        -1.54082
O           1.61419        -5.06136        -2.75214
C           1.60328        -5.24479         0.50226
O           1.59289        -5.62294         1.65713
C           2.66995        -4.70717        -0.45801
C           4.02520        -5.51184        -0.51093
C           5.26024        -4.87947        -0.77366
C           5.52866        -3.48118        -1.08554
O           4.71540        -2.58238        -1.11596
O           6.86006        -3.38141        -1.31747
C           7.50061        -4.56585        -1.16942
O           8.67838        -4.78786        -1.35475
C           6.48563        -5.52509        -0.77008
C           4.19689        -6.88835        -0.25938
C           3.18950        -7.92498        -0.09938
O           2.00894        -7.79209        -0.32364
O           3.84259        -9.06605         0.21427
C           5.18697        -8.92457         0.13181
O           6.01350        -9.80109         0.24437
C           5.42686        -7.52780        -0.18895
C           6.62302        -6.87045        -0.44728
C           7.93209        -7.52043        -0.40778
C           8.71665        -7.60837         0.66831
C          10.06410        -8.13492         0.92786
O          10.85953        -8.75836         0.25464
C           8.60626        -7.22672         2.08127
O           7.68778        -6.79456         2.75033
C          10.09671        -7.49245         2.32263
C          10.48649        -8.45393         3.52735
C          11.69728        -8.30323         4.23975
C          12.77774        -7.35252         4.01322
O          12.79399        -6.47063         3.18139
O          13.74410        -7.63466         4.91985
C          13.40362        -8.65920         5.73830
O          14.08048        -9.14759         6.61805
C          12.06983        -9.06915         5.33549
C           9.71989        -9.50928         4.06260
C           8.49769       -10.10920         3.55034
O           8.00929        -9.86927         2.48100
O           8.09240       -11.02533         4.46299
C           8.96463       -11.15194         5.49280
O           8.85971       -11.87570         6.45456
C          10.05220       -10.23071         5.20252
C          11.24569       -10.04472         5.88353
C          11.62939       -10.82330         7.05955
C          11.36146       -10.50829         8.32800
C          11.73438       -11.09122         9.62141
O          12.25679       -12.14149         9.93016
C          10.62783        -9.45074         9.02672
O           9.86148        -8.59626         8.63146
C          11.28088        -9.82762        10.37039
H          -3.77694        -4.61474         4.03290
H          -1.28971        -4.78221        -1.43087
H           2.79362        -3.62905        -0.29808
H           8.30431        -7.90516        -1.35567
H          10.63476        -6.53724         2.32467
H          12.24272       -11.70331         6.87295
H          10.60073        -9.99897        11.20375
H          12.10324        -9.16734        10.66117


--Link1--
%nproc=1
%mem=1GB
%Chk=12.chk
%NoSave
# Geom=AllCheck ZINDO(NStates=15,Singlets)
