%nproc=1
%mem=1GB
%Chk=15.chk
#T PM6 OPT

c1oc(c2)c(c1)sc2~c(s1)c(OC)c(C(F)(F)F)c1_0_12

0  1
C          -2.69609        -1.23794         1.08352
S          -1.61220        -2.48414         0.68811
C          -0.23529        -1.48524         0.95397
C          -0.64077        -0.18615         1.28860
O           0.30001         0.74105         1.61505
C           0.08368         2.07039         1.17379
C          -2.07378        -0.04005         1.38547
C          -2.83824         1.17219         1.79962
F          -4.17699         0.93823         1.85737
F          -2.47372         1.62011         3.02719
F          -2.67731         2.20351         0.93021
C           1.11697        -2.03695         0.80724
C           1.50343        -3.33735         0.46792
C           2.91366        -3.40687         0.36374
O           3.80672        -4.38872         0.03297
C           5.06065        -3.79910         0.06193
C           4.94725        -2.47331         0.43743
C           3.57025        -2.26508         0.62801
S           2.50057        -1.01514         1.08723
C           6.28537        -4.52538        -0.23388
S           6.38066        -6.18145         0.13204
C           8.05849        -6.32998        -0.30088
C           8.52651        -5.08212        -0.72812
O           9.84453        -4.90996        -1.05948
C          10.36236        -3.60773        -0.76687
C           7.46584        -4.05663        -0.79783
C           7.61712        -2.66643        -1.34938
F           6.45407        -2.04125        -1.65905
F           8.24547        -1.85653        -0.45133
F           8.32906        -2.63204        -2.50629
C           8.68847        -7.66270        -0.15497
C           9.64351        -8.32641        -0.93770
C           9.75420        -9.69041        -0.53220
O          10.44320       -10.80859        -0.95922
C          10.03623       -11.88426        -0.15889
C           9.01695       -11.41569         0.67515
C           8.96779       -10.01907         0.50346
S           8.20234        -8.66568         1.20179
C          10.61721       -13.22479        -0.24056
S          11.94536       -13.46961        -1.30869
C          12.14730       -15.16940        -0.99176
C          11.16460       -15.53522        -0.04393
O          10.90846       -16.76653         0.50083
C          11.27869       -17.85791        -0.30490
C          10.32722       -14.41686         0.43756
C           9.26600       -14.67715         1.48616
F           8.56013       -13.60912         1.90559
F           8.32397       -15.54740         1.03435
F           9.77901       -15.19482         2.63416
C          13.23245       -15.89573        -1.74024
C          13.30500       -17.19683        -2.24376
C          14.53079       -17.52521        -2.73900
O          15.06268       -18.69694        -3.20683
C          16.25104       -18.37262        -3.76253
C          16.51449       -17.00771        -3.65066
C          15.40481       -16.50167        -2.92625
S          14.72532       -15.05943        -2.23707
H          -3.76110        -1.43625         1.09787
H          -0.56859         2.59227         1.87610
H           1.04609         2.59291         1.19918
H          -0.29692         2.12136         0.14846
H           0.83383        -4.16748         0.28193
H           5.71746        -1.72560         0.55651
H          10.14573        -3.31363         0.26638
H          11.43814        -3.55911        -0.94805
H           9.98648        -2.86021        -1.45657
H          10.16337        -7.90232        -1.78098
H           8.37943       -11.87459         1.38036
H          12.36196       -17.85167        -0.31472
H          11.07008       -18.84567         0.11212
H          10.76964       -17.79285        -1.27983
H          12.54912       -17.98288        -2.24592
H          16.78677       -19.18163        -4.20746
H          17.36028       -16.47749        -4.04239


--Link1--
%nproc=1
%mem=1GB
%Chk=15.chk
%NoSave
# Geom=AllCheck ZINDO(NStates=15,Singlets)
