%nproc=1
%mem=1GB
%Chk=17.chk
#T PM6 OPT

c(s1)c(S(=O)C=C2)c2c1~c(s1)c(N(=O)=O)c(N)c1_0_2

0  1
C          -0.85087         0.18938        -1.79185
S           0.75917        -0.29997        -2.03594
C          -1.33456        -0.20420        -0.56144
N          -2.69761         0.07217        -0.15505
O          -3.41125         0.68392        -0.95349
O          -3.06215        -0.33898         0.96134
C          -0.32606        -0.87596         0.21087
N          -0.56881        -1.29509         1.46782
C           0.88919        -1.00868        -0.45546
C           2.14806        -1.61573        -0.03009
S           3.67760        -1.02987        -0.63705
C           2.43336        -2.66270         0.81287
S           1.45545        -3.78117         1.72056
O           0.85113        -2.99564         2.84879
C           2.92491        -4.52731         2.46009
C           4.04444        -3.98006         1.95644
C           3.80870        -2.94609         1.00412
C           4.64548        -2.16611         0.24355
C           6.08750        -2.21646         0.08306
S           6.95567        -3.71857         0.20924
C           8.50543        -3.03313        -0.16254
C           8.31119        -1.69287        -0.38547
S           9.38248        -0.40112        -0.84089
O          10.25483        -0.13485         0.34795
C           8.02250         0.79808        -0.72172
C           6.86675         0.18688        -0.40012
C           6.98676        -1.22229        -0.22211
C           9.69857        -3.86052        -0.27322
S          10.90804        -3.46032        -1.42666
C          11.86864        -4.84094        -1.09463
C          11.28797        -5.58333        -0.07842
N          11.86259        -6.79505         0.41817
O          11.29046        -7.84915         0.11024
O          12.86757        -6.68692         1.12983
C          10.04856        -5.02694         0.39972
N           9.30560        -5.58177         1.39058
C          13.03440        -5.11121        -1.92133
S          13.22730        -6.65737        -2.63728
C          14.04360        -4.26640        -2.35622
N          14.15361        -2.89882        -1.93902
O          14.34560        -2.69192        -0.74500
O          14.06987        -2.03620        -2.83591
C          14.94085        -4.88418        -3.29304
N          15.97862        -4.21352        -3.83518
C          14.60023        -6.19786        -3.58513
C          15.20073        -7.15823        -4.50689
S          14.21081        -8.38943        -5.28317
C          16.49004        -7.34211        -4.95409
S          18.01365        -6.56222        -4.64379
O          17.93505        -5.21577        -5.30621
C          18.84728        -7.61666        -5.87012
C          17.99297        -8.52346        -6.37948
C          16.67091        -8.39297        -5.87930
C          15.52468        -9.07574        -6.15384
H          -1.37591         0.73537        -2.56558
H          -1.50127        -1.29612         1.88442
H           0.09556        -1.78135         2.07305
H           2.89743        -5.26821         3.24503
H           5.02688        -4.26470         2.30376
H           8.13552         1.86407        -0.85658
H           5.94821         0.73658        -0.24384
H           9.58175        -6.40677         1.92107
H           8.47938        -5.12294         1.76799
H          16.27510        -3.27705        -3.57076
H          16.55527        -4.56006        -4.60817
H          19.87972        -7.50016        -6.16559
H          18.27243        -9.24675        -7.13396
H          15.36976        -9.91698        -6.81563


--Link1--
%nproc=1
%mem=1GB
%Chk=17.chk
%NoSave
# Geom=AllCheck ZINDO(NStates=15,Singlets)
