%nproc=1
%mem=1GB
%Chk=19.chk
#T PM6 OPT

c(s1)c(O)c(C(=O)O)c1~c(s1)c(C(=O)CC2(=O))c2c1_2_0

0  1
C           1.46784        -5.37802         4.87640
S          -0.06290        -5.90240         4.31653
C           1.98072        -4.45763         4.01773
C           3.21270        -3.69776         3.98951
O           4.11437        -3.74551         4.80822
C           3.17828        -2.82155         2.75307
C           1.84740        -3.15662         2.11673
O           1.45122        -2.59214         1.11125
C           1.14246        -4.15727         2.90863
C          -0.06605        -4.84816         2.89944
C          -1.23405        -4.83186         1.99250
S          -2.62352        -5.83480         2.23303
C          -1.49413        -4.08289         0.86264
O          -0.66130        -3.18028         0.34300
C          -2.75094        -4.29715         0.20163
C          -3.12728        -3.52353        -0.98081
O          -3.75467        -3.92939        -1.94781
O          -2.72729        -2.22657        -0.95510
C          -3.49069        -5.29457         0.83201
C          -4.82180        -5.84067         0.52115
S          -6.06264        -4.87192        -0.23591
C          -5.37136        -7.08208         0.76667
C          -4.96250        -8.30393         1.44940
O          -4.02978        -8.45682         2.22110
C          -5.97288        -9.39658         1.12256
C          -7.07103        -8.65865         0.37883
O          -8.13405        -9.15267         0.03352
C          -6.66720        -7.27627         0.18729
C          -7.23670        -6.14274        -0.35841
C          -8.57996        -5.90257        -0.90115
S          -8.94106        -4.73269        -2.11819
C          -9.75918        -6.48479        -0.51979
O          -9.87208        -7.35795         0.49795
C         -10.91234        -6.08842        -1.23819
C         -12.14441        -6.74573        -0.92926
O         -12.34709        -7.82715        -0.32793
O         -13.12958        -6.05089        -1.31791
C         -10.69916        -5.02015        -2.14050
C         -11.59365        -4.21831        -3.08552
S         -10.80963        -3.00918        -4.15506
C         -12.96753        -4.13962        -3.38154
C         -14.30222        -4.61826        -2.91105
O         -14.78077        -5.01473        -1.84231
C         -15.35529        -4.27923        -3.88343
C         -14.68085        -3.43026        -4.90002
O         -15.29444        -2.94223        -5.83622
C         -13.26412        -3.32229        -4.56108
C         -12.22393        -2.56305        -5.04711
C         -12.18895        -1.53630        -6.10493
S         -13.24841        -1.59599        -7.46998
C         -11.37732        -0.41114        -6.23625
O         -10.46020        -0.07923        -5.30140
C         -11.62430         0.38845        -7.40988
C         -10.94294         1.60910        -7.80150
O         -11.40440         2.50633        -8.49070
O          -9.68083         1.70593        -7.31761
C         -12.64678        -0.15768        -8.15530
H           1.90954        -5.76418         5.78631
H           3.97755        -3.08054         2.05658
H           3.18126        -1.76214         3.02137
H           0.00705        -2.86965         0.97346
H          -3.02391        -1.86135        -1.81002
H          -5.52043       -10.14611         0.46923
H          -6.36825        -9.83573         2.04191
H          -9.21686        -8.07279         0.40904
H         -14.01221        -6.35737        -1.03607
H         -15.78836        -5.20046        -4.27394
H         -16.06325        -3.69355        -3.28952
H          -9.98684         0.73294        -5.57054
H          -9.35834         2.54854        -7.70542
H         -13.05265         0.21377        -9.09005


--Link1--
%nproc=1
%mem=1GB
%Chk=19.chk
%NoSave
# Geom=AllCheck ZINDO(NStates=15,Singlets)
