%nproc=1
%mem=1GB
%Chk=25.chk
#T PM6 OPT

c(s1)c(SC(C#N)=C2)c2c1~c(s1)c(CC=C2)c2c1_0_1

0  1
C          -3.22514        -2.01344        -1.66287
S          -1.61182        -1.58380        -1.26171
C          -3.38111        -3.36627        -1.58456
C          -4.47970        -4.34076        -1.83294
C          -3.76836        -5.64761        -1.48975
C          -2.48820        -5.42924        -1.10960
C          -2.20125        -4.03622        -1.15909
C          -1.12214        -3.22255        -0.90547
C           0.22530        -3.54282        -0.47819
S           1.01205        -5.03360        -0.86834
C           1.08424        -2.75984         0.25785
S           0.88948        -1.12196         1.02969
C           2.55401        -1.28418         1.51885
C           3.21252        -0.24041         2.24541
N           3.76194         0.59375         2.83635
C           3.17292        -2.48893         1.16805
C           2.33180        -3.37548         0.43097
C           2.49409        -4.63043        -0.07106
C           3.62148        -5.54141        -0.02078
S           5.25437        -4.97462         0.05276
C           3.64231        -6.91574        -0.00954
C           2.63443        -8.02104        -0.03261
C           3.54556        -9.24118         0.07163
C           4.84755        -8.88236         0.11556
C           4.95937        -7.46462         0.06761
C           5.98374        -6.55040         0.04908
C           7.42437        -6.73870         0.05126
S           8.20415        -8.07573         0.81781
C           8.38205        -5.93894        -0.53006
S           8.26313        -4.38765        -1.47355
C           9.99244        -4.50230        -1.65724
C          10.71335        -3.51276        -2.40614
N          11.30200        -2.72480        -3.01341
C          10.59543        -5.60972        -1.04878
C           9.67511        -6.46085        -0.36497
C           9.80761        -7.61742         0.34161
C          10.97848        -8.38981         0.72173
S          12.52715        -7.66014         1.00069
C          13.31519        -9.13545         1.43835
C          12.39879       -10.16157         1.39419
S          12.53153       -11.93468         1.78572
C          10.86782       -12.05271         1.27792
C          10.19149       -13.31576         1.27225
N           9.62904       -14.33067         1.25966
C          10.26443       -10.84831         0.89656
C          11.13602        -9.71957         0.97074
C          14.72613        -9.21645         1.77243
S          15.68180       -10.62834         1.38270
C          17.13132        -9.99764         2.05414
C          16.91974        -8.73153         2.51492
C          17.74446        -7.66799         3.15444
C          16.68942        -6.58005         3.33688
C          15.47948        -6.98038         2.88027
C          15.57249        -8.30065         2.35542
H          -3.94625        -1.25919        -1.94659
H          -4.80060        -4.33141        -2.87858
H          -5.33316        -4.17280        -1.17015
H          -4.24554        -6.61456        -1.54895
H          -1.79120        -6.20005        -0.81598
H           4.20064        -2.69322         1.44253
H           2.07872        -8.04815        -0.97439
H           1.94905        -7.97186         0.81777
H           3.17844       -10.25686         0.10327
H           5.67293        -9.57514         0.19126
H          11.66342        -5.78184        -1.11931
H           9.23038       -10.81284         0.57449
H          18.04397       -10.57828         2.05599
H          18.55190        -7.32849         2.49893
H          18.14834        -7.98788         4.11938
H          16.90361        -5.61943         3.78203
H          14.58036        -6.38301         2.91349


--Link1--
%nproc=1
%mem=1GB
%Chk=25.chk
%NoSave
# Geom=AllCheck ZINDO(NStates=15,Singlets)
