%nproc=1
%mem=1GB
%Chk=27.chk
#T PM6 OPT

c(s1)cc(c2ccccc2)c1~c(s1)c(OC=N2)c2c1_0_6

0  1
C          -2.81348         1.68825        -0.62199
S          -1.43086         1.11222         0.27578
C          -1.56118        -0.51002        -0.35184
C          -2.63511        -0.53097        -1.14051
O          -3.21517        -1.51690        -1.88203
C          -4.24695        -0.76723        -2.47339
N          -4.36392         0.54229        -2.16804
C          -3.32654         0.66455        -1.31498
C          -0.63794        -1.59114        -0.04699
S          -0.83896        -3.14822        -0.64980
C           0.57829        -1.56536         0.58558
C           1.16354        -2.89445         0.86598
C           2.38899        -2.93773         1.71124
C           3.40163        -3.87801         1.58693
C           4.41063        -4.01250         2.54673
C           4.57013        -3.04035         3.52161
C           3.71264        -1.95081         3.53255
C           2.61485        -1.92296         2.66557
C           0.38825        -3.95304         0.28277
C           0.47674        -5.48761         0.15357
S           1.79591        -6.32634         0.93664
C           1.79284        -7.68391        -0.07668
C           0.54288        -7.73857        -0.64519
C          -0.31842        -6.55369        -0.40540
C          -1.77637        -6.60977        -0.79246
C          -2.37374        -7.79469        -1.27469
C          -3.75438        -7.88185        -1.56230
C          -4.57836        -6.77126        -1.43908
C          -4.02594        -5.59792        -0.98143
C          -2.68337        -5.57633        -0.59118
C           2.86546        -8.65450        -0.12083
S           4.01200        -8.93865         1.16032
C           3.20618        -9.51499        -1.10643
O           2.66359        -9.71233        -2.34192
C           3.51866       -10.74669        -2.76771
N           4.48681       -11.18254        -1.94322
C           4.26120       -10.36372        -0.88241
C           4.85946       -10.23371         0.33535
C           5.96196       -10.95099         0.93170
S           6.80184       -12.24633         0.10345
C           7.91477       -12.56401         1.40154
C           7.60003       -11.69361         2.37493
O           8.15256       -11.50345         3.60657
C           7.32251       -10.45481         4.03110
N           6.35566       -10.00525         3.21193
C           6.56167       -10.82460         2.15183
C           8.95180       -13.56605         1.39604
S           9.20351       -14.59477         0.04590
C           9.86691       -13.86479         2.39607
C          10.77751       -14.93694         2.06943
C          11.85906       -15.50004         2.89952
C          12.66043       -16.56329         2.44672
C          13.68972       -17.08777         3.23409
C          13.93591       -16.56277         4.49661
C          13.15302       -15.51437         4.97034
C          12.12504       -14.98682         4.17879
C          10.50080       -15.40048         0.79799
H          -3.14205         2.72734        -0.57635
H          -4.87912        -1.32800        -3.14689
H           1.04412        -0.62874         0.87749
H           3.44284        -4.53729         0.73270
H           5.07698        -4.87064         2.50788
H           5.38078        -3.11301         4.23927
H           3.87612        -1.13016         4.22511
H           1.94989        -1.06774         2.75342
H           0.22518        -8.63248        -1.16768
H          -1.81093        -8.71448        -1.40228
H          -4.18475        -8.82839        -1.87794
H          -5.64103        -6.81971        -1.65404
H          -4.61899        -4.69540        -0.85894
H          -2.42335        -4.70153        -0.03915
H           3.31416       -11.12230        -3.76358
H           7.54466       -10.08279         5.02343
H           9.88599       -13.33225         3.33844
H          12.50936       -17.01468         1.47133
H          14.29538       -17.90675         2.85435
H          14.73549       -16.97050         5.10891
H          13.34151       -15.10267         5.95865
H          11.54298       -14.16719         4.58969
H          10.98765       -16.18552         0.23936


--Link1--
%nproc=1
%mem=1GB
%Chk=27.chk
%NoSave
# Geom=AllCheck ZINDO(NStates=15,Singlets)
