%nproc=1
%mem=1GB
%Chk=29.chk
#T PM6 OPT

c(s1)c(OC(=O)C(=O)O2)c2c1~c(s1)c(C)c(C)c1_3_0

0  1
C           4.26838         2.86062        -0.70401
S           3.17511         1.58786        -0.46530
C           5.58145         2.45427        -0.63008
C           6.74363         3.37816        -0.82912
C           5.68394         1.03143        -0.34143
C           7.01930         0.36060        -0.18785
C           4.42618         0.41927        -0.24315
C           4.06960        -0.98083        -0.00244
S           5.07570        -2.27663        -0.53035
C           2.93064        -1.52180         0.57358
O           1.89442        -0.78503         1.00955
C           0.80744        -1.41003         1.50043
O          -0.18567        -0.78814         1.85838
C           0.83602        -2.96756         1.62585
O          -0.13887        -3.56339         2.06819
O           1.95250        -3.62017         1.25093
C           2.95503        -2.92354         0.68889
C           4.10079        -3.50909         0.18168
C           4.48731        -4.91759         0.12762
S           3.29249        -6.13646         0.00843
C           5.75542        -5.49111         0.15567
C           7.05042        -4.75011         0.34443
C           5.71841        -6.94082        -0.04757
C           6.98770        -7.73341        -0.19418
C           4.41656        -7.43775        -0.06579
C           3.93384        -8.81829        -0.14165
S           2.40474        -9.20177        -0.85279
C           4.51394        -9.99090         0.31110
O           5.68304       -10.03818         0.95864
C           6.15974       -11.22874         1.36999
O           7.21744       -11.31812         1.97380
C           5.33002       -12.51493         1.05237
O           5.71090       -13.60502         1.45028
O           4.20060       -12.38071         0.33162
C           3.76220       -11.14847         0.02783
C           2.54050       -10.90021        -0.56522
C           1.47109       -11.82385        -0.93550
S           0.47566       -11.47926        -2.28706
C           1.07700       -13.01955        -0.34230
C           1.66127       -13.64126         0.89545
C          -0.02186       -13.66790        -1.06673
C          -0.53811       -15.01074        -0.63382
C          -0.47216       -12.90226        -2.13743
C          -1.56116       -13.13726        -3.08063
S          -1.42301       -12.63138        -4.74266
C          -2.79910       -13.73291        -2.89871
O          -3.23860       -14.22622        -1.73013
C          -4.40019       -14.91272        -1.71790
O          -4.78159       -15.50249        -0.71400
C          -5.26960       -14.95028        -3.02297
O          -6.35263       -15.52238        -3.02286
O          -4.79269       -14.34420        -4.12795
C          -3.57851       -13.78304        -4.06296
C          -2.98529       -13.19017        -5.14300
H           3.89975         3.85952        -0.89831
H           7.36462         3.41504         0.07180
H           7.35982         3.03454        -1.66675
H           6.41503         4.39874        -1.05095
H           7.25254        -0.22676        -1.08099
H           7.82740         1.08923        -0.06537
H           7.04438        -0.28066         0.69754
H           7.80577        -5.38837         0.81414
H           7.44043        -4.41781        -0.62292
H           6.93256        -3.89008         1.00872
H           7.74767        -7.14942        -0.72553
H           7.38761        -7.98753         0.79309
H           6.84953        -8.64388        -0.78147
H           0.86841       -14.00206         1.55739
H           2.29851       -14.48984         0.62241
H           2.23800       -12.93652         1.49466
H           0.29433       -15.71508        -0.52811
H          -1.03941       -14.92372         0.33651
H          -1.22736       -15.46248        -1.34576
H          -3.37737       -13.06930        -6.14411


--Link1--
%nproc=1
%mem=1GB
%Chk=29.chk
%NoSave
# Geom=AllCheck ZINDO(NStates=15,Singlets)
