%nproc=1
%mem=1GB
%Chk=31.chk
#T PM6 OPT

c(s1)c(NC=CN2)c2c1~C(S1)=CC2=C1C=C(C2=O)_1_6

0  1
C          -1.95892         2.12282         2.18706
C          -0.99945         3.02037         1.87880
C           0.13815         2.29383         1.49145
S           1.66891         2.72778         0.99233
C           2.12710         1.05382         0.80509
C           1.06971         0.20885         1.15065
C          -0.06501         0.94805         1.54098
C          -1.41681         0.73088         1.98942
O          -2.00521        -0.31245         2.17156
C           3.45839         0.67988         0.36313
S           4.16791        -0.80431         0.87410
C           4.34086         1.35440        -0.45552
N           4.14846         2.55804        -1.08028
C           5.14076         3.09265        -1.88449
C           6.30206         2.43868        -2.07611
N           6.54200         1.21277        -1.47170
C           5.58605         0.64736        -0.66420
C           5.63694        -0.56952        -0.01174
C           6.70046        -1.56283         0.00885
S           6.34941        -3.24795         0.20266
C           8.06421        -1.39504        -0.13955
N           8.75911        -0.22309        -0.31053
C          10.14125        -0.24837        -0.43716
C          10.82243        -1.40906        -0.39384
N          10.16260        -2.61267        -0.21500
C           8.79829        -2.64020        -0.09746
C           7.99125        -3.74565         0.07306
C           8.34752        -5.14941         0.13594
S           9.73895        -5.76259        -0.71672
C           7.68641        -6.17562         0.81193
C           8.35034        -7.40579         0.63464
C           9.45216        -7.30437        -0.15735
C          10.10840        -8.53196        -0.31494
C           9.42498        -9.46265         0.38960
C           8.23840        -8.77793         1.04879
O           7.39708        -9.27454         1.77611
C           9.73104       -10.85264         0.54089
C           9.03926       -11.79291         1.22760
C           9.72815       -13.00650         1.10149
S           9.45947       -14.54542         1.68076
C          10.90391       -15.12897         0.89814
C          11.55900       -14.09958         0.22290
C          10.85675       -12.88731         0.35238
C          10.95937       -11.51672        -0.06238
O          11.83736       -11.00261        -0.73304
C          11.30735       -16.51504         1.00002
S          12.98325       -16.95208         0.94822
C          10.53162       -17.64953         1.14152
N           9.16730       -17.74392         1.20750
C           8.56474       -18.98488         1.35000
C           9.30218       -20.11148         1.41304
N          10.68773       -20.06420         1.34046
C          11.31061       -18.85775         1.20639
C          12.65605       -18.62744         1.11534
H          -2.96426         2.30502         2.52376
H          -1.08173         4.09650         1.91904
H           1.11335        -0.87330         1.11599
H           3.28637         3.08648        -0.99198
H           4.91022         4.04720        -2.34358
H           7.09947         2.81698        -2.70538
H           7.33593         0.68086        -1.82450
H           8.33371         0.68812        -0.14899
H          10.62022         0.71516        -0.56772
H          11.90075        -1.47398        -0.48500
H          10.72838        -3.45558        -0.20436
H           6.79243        -6.04155         1.40963
H          11.00980        -8.67775        -0.89475
H           8.12306       -11.65731         1.78627
H          12.48071       -14.22019        -0.33364
H           8.56054       -16.93132         1.17979
H           7.48243       -18.97647         1.40476
H           8.87042       -21.09945         1.52189
H          11.18246       -20.94724         1.38712
H          13.46493       -19.34256         1.13406


--Link1--
%nproc=1
%mem=1GB
%Chk=31.chk
%NoSave
# Geom=AllCheck ZINDO(NStates=15,Singlets)
