%nproc=1
%mem=1GB
%Chk=37.chk
#T PM6 OPT

c(s1)cc(C(=O)O)c1~c(s1)c(OC)c(N)c1_0_8

0  1
C          -1.29893         0.05670        -2.79086
S           0.23069        -0.67306        -2.90223
C          -1.72528         0.21055        -1.48889
O          -2.94806         0.72175        -1.16099
C          -3.94850         0.46363        -2.15719
C          -0.70478        -0.18896        -0.55330
N          -0.78677        -0.08083         0.79792
C           0.40121        -0.73151        -1.19460
C           1.59131        -1.29687        -0.59690
S           3.13018        -0.69661        -1.05721
C           3.96541        -1.66430         0.07669
C           3.06946        -2.42941         0.79890
C           1.69754        -2.27068         0.38655
C           0.58505        -3.03380         0.93475
O          -0.44461        -3.33922         0.36791
O           0.78524        -3.42329         2.21924
C           5.41275        -1.69346         0.13337
S           6.21851        -3.10103         0.68153
C           6.33981        -0.73118        -0.22682
O           5.95679         0.54604        -0.49842
C           6.37962         1.00656        -1.77784
C           7.68396        -1.23775        -0.24444
N           8.74487        -0.46884        -0.60570
C           7.75761        -2.57967         0.11735
C           8.90670        -3.47886         0.17606
S          10.48000        -2.81937         0.42329
C          11.23655        -4.33433         0.58751
C          10.31470        -5.33547         0.35995
C           8.97677        -4.86960         0.09071
C           7.88129        -5.78252        -0.22236
O           6.91945        -5.56412        -0.92854
O           8.02990        -7.01366         0.33216
C          12.64965        -4.48553         0.89554
S          13.42374        -5.97452         0.55782
C          13.54035        -3.58683         1.47306
O          13.05267        -2.39926         1.93167
C          13.91812        -1.28201         1.90274
C          14.87322        -4.13916         1.59248
N          15.95812        -3.46540         2.06463
C          14.92001        -5.47997         1.23351
C          15.97812        -6.47145         1.36963
S          16.43209        -7.40929        -0.01537
C          17.44578        -8.42505         0.89466
C          17.51771        -8.02415         2.20504
C          16.67046        -6.89394         2.50574
C          16.55667        -6.32416         3.84293
O          16.28927        -5.17295         4.13017
O          16.86048        -7.19352         4.83592
H          -1.82475         0.31376        -3.69728
H          -3.78666         1.05555        -3.06814
H          -3.98423        -0.60480        -2.40495
H          -4.92594         0.75029        -1.76148
H          -1.67302         0.04196         1.27613
H          -0.02707        -0.37331         1.40588
H           3.37117        -3.12964         1.57008
H          -0.03521        -3.91518         2.42863
H           5.57228         1.61261        -2.19925
H           7.25025         1.65885        -1.66150
H           6.59967         0.19792        -2.48392
H           8.68050         0.54124        -0.52517
H           9.69245        -0.80600        -0.44828
H          10.56647        -6.39043         0.37684
H           7.22168        -7.48008         0.03525
H          14.56553        -1.26145         1.02157
H          13.28995        -0.38465         1.87314
H          14.48939        -1.22381         2.83292
H          15.81064        -2.70302         2.71528
H          16.73697        -4.02005         2.41736
H          17.95155        -9.26008         0.42832
H          18.13889        -8.52520         2.93956
H          16.74900        -6.64882         5.64346


--Link1--
%nproc=1
%mem=1GB
%Chk=37.chk
%NoSave
# Geom=AllCheck ZINDO(NStates=15,Singlets)
