%nproc=1
%mem=1GB
%Chk=39.chk
#T PM6 OPT

c(s1)cc(c12)[nH]cc2~c(s1)cc(N(=O)=O)c1_0_11

0  1
C          10.27824         3.10770         3.08554
S           9.58985         1.68716         2.39692
C           9.37643         3.89503         3.76651
C           8.08605         3.30456         3.71039
C           8.02840         2.11690         3.03057
N           6.83296         3.60720         4.17525
H           6.62125         4.43455         4.72098
C           5.97978         2.60707         3.78686
C           6.66926         1.65466         3.06168
C           6.10058         0.39224         2.47199
S           7.06246        -1.00216         2.18266
C           5.75032        -1.94825         1.59765
C           4.58833        -1.19801         1.62496
C           4.78290         0.13379         2.13511
N           3.70482         1.07496         2.24025
O           3.78568         2.11577         1.58380
O           2.74768         0.72521         2.94948
C           5.88879        -3.33055         1.15594
S           7.36769        -4.19142         1.19605
C           4.89536        -4.14876         0.65494
C           5.34146        -5.48955         0.36303
N           4.41519        -6.48319        -0.10150
O           3.42074        -6.67648         0.62235
O           4.61365        -6.98569        -1.20699
C           6.69890        -5.66340         0.59118
C           7.56273        -6.88872         0.38821
C           8.98642        -6.99503         0.58987
S          10.35108        -6.06734         1.13734
C          11.44664        -7.31671         0.66264
C          10.78842        -8.45015         0.21662
C           9.38335        -8.23925         0.19071
N           8.27510        -8.95835        -0.16994
H           8.30524        -9.92008        -0.48966
C           7.17882        -8.14092        -0.05128
C          12.88101        -7.11672         0.75000
S          13.96345        -8.41526         1.00411
C          13.57912        -5.93311         0.62633
C          15.00155        -6.10432         0.73166
N          15.89408        -4.99163         0.61235
O          15.89330        -4.40220        -0.47501
O          16.53310        -4.66831         1.62097
C          15.37308        -7.42647         0.91202
C          16.76034        -8.01137         0.99031
C          17.11076        -9.39704         1.14513
S          16.37465       -10.96356         1.32807
C          17.92285       -11.70551         1.35482
C          18.97263       -10.82114         1.24770
C          18.47543        -9.49610         1.13318
N          19.00543        -8.24019         1.00256
H          19.99980        -8.04588         0.97896
C          17.96858        -7.34768         0.90389
H          11.33580         3.29670         2.95315
H           9.62966         4.82252         4.26499
H           4.94634         2.66468         4.10099
H           3.62321        -1.56941         1.29615
H           3.86860        -3.83002         0.51039
H          11.28014        -9.35636        -0.11569
H           6.21991        -8.55615        -0.32630
H          13.10692        -4.97344         0.44606
H          17.98158       -12.78103         1.45228
H          20.01558       -11.10993         1.24722
H          18.22079        -6.30368         0.78392


--Link1--
%nproc=1
%mem=1GB
%Chk=39.chk
%NoSave
# Geom=AllCheck ZINDO(NStates=15,Singlets)
