%nproc=1
%mem=1GB
%Chk=4.chk
#T PM6 OPT

c(s1)c(cc(N(=O)=O)c(N(=O)=O)c2)c2c1~c(s1)c(C(=C)C=C2)c2c1_1_3

0  1
C           4.17338        -2.27831        -0.26437
S           2.57901        -1.72050        -0.09782
C           4.19000        -3.62063        -0.51035
C           5.39839        -4.30619        -0.66076
C           5.23361        -5.69710        -0.88349
N           6.47141        -6.48299        -1.07956
O           7.55125        -5.84802        -0.97640
O           6.40889        -7.66195        -1.35900
C           3.93436        -6.29968        -0.94177
N           3.77322        -7.72861        -1.14298
O           4.11722        -8.46541        -0.21121
O           3.20726        -8.07666        -2.18653
C           2.69854        -5.59247        -0.79053
C           2.86108        -4.21479        -0.57410
C           1.83540        -3.28437        -0.38351
C           0.36340        -3.38282        -0.31696
S          -0.55295        -4.85822        -0.53426
C          -2.10670        -4.18265        -0.08878
C          -1.85155        -2.90070         0.33163
C          -2.52230        -1.81606         0.98089
C          -3.40914        -1.85768         1.97808
C          -1.76038        -0.60662         0.65606
C          -0.58954        -0.98239         0.09946
C          -0.57071        -2.40520        -0.05615
C          -3.35439        -4.94463        -0.17074
S          -3.40689        -6.66506         0.05395
C          -4.64763        -4.56147        -0.42684
C          -5.36176        -3.38972        -0.83381
C          -4.98518        -2.41046        -1.66025
C          -6.76058        -3.61588        -0.45513
C          -6.90827        -4.91059        -0.09597
C          -5.63445        -5.55958        -0.12056
C          -5.15434        -6.84801        -0.03093
C          -5.85637        -8.16278        -0.02142
S          -7.59466        -8.24446        -0.13337
C          -5.39050        -9.47413         0.02775
C          -4.03208        -9.82628         0.15042
C          -3.77878       -11.21351         0.23843
N          -2.38500       -11.56973         0.43872
O          -1.58546       -11.18003        -0.41920
O          -2.10139       -12.15006         1.49170
C          -4.79137       -12.18940         0.12918
N          -4.49941       -13.59370         0.34863
O          -3.80008       -14.16001        -0.49524
O          -5.03659       -14.12570         1.32910
C          -6.14626       -11.87446        -0.14533
C          -6.44329       -10.49985        -0.09595
C          -7.73215        -9.99037        -0.13471
C          -9.06695       -10.63874        -0.18880
S         -10.36070        -9.83460        -1.05078
C          -9.60527       -11.81546         0.30081
C          -9.22615       -12.96956         1.08100
C          -8.13371       -13.28824         1.77511
C         -10.37978       -13.87346         1.09176
C         -11.40259       -13.29971         0.43477
C         -10.98734       -12.03430        -0.08116
C         -11.59062       -11.03709        -0.81230
C         -12.97549       -10.90153        -1.32235
S         -14.15251       -12.15603        -1.00021
C         -13.62104        -9.89765        -2.05046
C         -13.01138        -8.72666        -2.52640
C         -13.91372        -7.83583        -3.15430
N         -13.32660        -6.60350        -3.64197
O         -12.76220        -5.88628        -2.80688
O         -13.37431        -6.41015        -4.86112
C         -15.29714        -8.10000        -3.34417
N         -16.14241        -7.09476        -3.96166
O         -16.16242        -5.97994        -3.42805
O         -16.81654        -7.45016        -4.93510
C         -15.93392        -9.29081        -2.91979
C         -15.04243       -10.15107        -2.26721
C         -15.44878       -11.35381        -1.76316
H           5.00653        -1.59311        -0.15909
H           6.36854        -3.81988        -0.60912
H           1.75535        -6.11783        -0.83719
H          -3.75801        -2.80110         2.38260
H          -3.69385        -0.95214         2.50608
H          -2.06181         0.40287         0.88713
H           0.17780        -0.29460        -0.22301
H          -4.00289        -2.39844        -2.11970
H          -5.69721        -1.66137        -1.99527
H          -7.54129        -2.87346        -0.51375
H          -7.84075        -5.35488         0.21776
H          -3.20272        -9.14226         0.21003
H          -6.87720       -12.65168        -0.32171
H          -7.29177       -12.62895         1.90439
H          -8.03713       -14.26393         2.24591
H         -10.40642       -14.82416         1.60241
H         -12.37656       -13.75425         0.34259
H         -11.96642        -8.47305        -2.45993
H         -16.99106        -9.48367        -3.07036
H         -16.43227       -11.80872        -1.79337


--Link1--
%nproc=1
%mem=1GB
%Chk=4.chk
%NoSave
# Geom=AllCheck ZINDO(NStates=15,Singlets)
