%nproc=1
%mem=1GB
%Chk=47.chk
#T PM6 OPT

c(s1)c(NC(=S)N2)c2c1~c(o1)nnc1_3_0

0  1
C           9.28934         5.40551         0.62539
O           9.24613         4.05070         0.53048
N           8.10573         5.96739         0.62233
N           7.19638         4.93483         0.51870
C           7.89071         3.81081         0.46547
C           7.30504         2.51287         0.35518
S           8.26425         1.07145         0.29306
C           5.98707         2.16696         0.28149
N           4.77446         2.82097         0.27483
C           3.76628         1.83706         0.16916
S           2.14180         2.11410         0.11149
N           4.39476         0.57252         0.11811
C           5.75399         0.78747         0.18475
C           6.88542         0.02581         0.17943
C           7.01998        -1.39323         0.10159
O           8.22602        -2.04717         0.07047
N           6.00677        -2.23829         0.05789
N           6.54569        -3.50751         0.00323
C           7.85839        -3.36747         0.00994
C           8.78518        -4.45201        -0.04215
S          10.49918        -4.19634        -0.08729
C           8.54047        -5.79349        -0.06593
N           7.43441        -6.61401        -0.04229
C           7.89951        -7.94723        -0.08424
S           6.96036        -9.30214        -0.05960
N           9.31072        -7.91511        -0.14508
C           9.69226        -6.59120        -0.12881
C          10.86235        -5.89049        -0.15467
C          12.20460        -6.37511        -0.21799
O          13.31386        -5.56684        -0.23625
N          12.53261        -7.65291        -0.26075
N          13.91093        -7.71198        -0.30173
C          14.35007        -6.46660        -0.28394
C          15.73068        -6.09828        -0.30104
S          16.24083        -4.43669        -0.28799
C          16.83671        -6.89708        -0.32294
N          17.10744        -8.24895        -0.34092
C          18.51224        -8.39494        -0.35593
S          19.34236        -9.82001        -0.38138
N          19.08689        -7.10354        -0.34546
C          18.05288        -6.20019        -0.32587
C          17.92556        -4.84538        -0.30875
H          10.26170         5.86951         0.69149
H           4.63799         3.82225         0.33025
H           3.93445        -0.32516         0.04203
H           6.46921        -6.31415         0.00607
H           9.92990        -8.71438        -0.18321
H          16.42304        -8.99343        -0.34358
H          20.07404        -6.89371        -0.35184
H          18.68568        -4.07789        -0.30666


--Link1--
%nproc=1
%mem=1GB
%Chk=47.chk
%NoSave
# Geom=AllCheck ZINDO(NStates=15,Singlets)
