%nproc=1
%mem=1GB
%Chk=58.chk
#T PM6 OPT

c(s1)cc(OC)c1~c(o1)nnc1_2_5

0  1
C          -1.62391        -2.90619         0.47525
O          -0.69499        -1.97100         0.15006
N          -1.11922        -3.95567         1.08384
N           0.23663        -3.72632         1.16381
C           0.47027        -2.54379         0.61069
C           1.76595        -1.94511         0.49290
S           3.17032        -2.92453         0.41929
C           4.20374        -1.57363         0.28798
C           3.49320        -0.39035         0.30725
C           2.08396        -0.59945         0.41766
O           1.09964         0.33586         0.47186
C           1.54614         1.68476         0.40767
C           5.62275        -1.72514         0.17878
O           6.27019        -2.93269         0.17085
N           6.46559        -0.71606         0.07148
N           7.72713        -1.26132        -0.01492
C           7.58822        -2.57509         0.04406
C           8.67028        -3.51469        -0.00426
S          10.28232        -2.97063        -0.15203
C          10.92588        -4.55976        -0.11918
C           9.91031        -5.49041        -0.01114
C           8.61569        -4.89252         0.07469
O           7.42374        -5.53466         0.17515
C           7.48236        -6.76708         0.88422
C          12.35166        -4.79229        -0.18102
S          13.02699        -6.36587        -0.16186
C          13.35046        -3.84065        -0.24946
C          14.66338        -4.39394        -0.18747
O          15.84375        -3.72134        -0.17188
C          15.73441        -2.30268        -0.19574
C          14.63633        -5.77515        -0.14617
C          15.73348        -6.69704        -0.08753
O          15.67664        -7.98621        -0.57984
N          16.91598        -6.44078         0.44634
N          17.68405        -7.57965         0.30628
C          16.92333        -8.45064        -0.30887
H          -2.64752        -2.70720         0.21042
H           3.98326         0.57431         0.24463
H           2.16660         1.93620         1.27456
H           2.08023         1.88176        -0.52803
H           0.66372         2.33138         0.42903
H          10.09300        -6.55688         0.00694
H           8.09232        -7.50896         0.35935
H           7.85006        -6.61153         1.90449
H           6.46536        -7.16486         0.94740
H          13.13640        -2.78135        -0.30093
H          15.52280        -1.95741        -1.21333
H          14.98288        -1.92322         0.50552
H          16.69541        -1.88515         0.11676
H          17.15852        -9.45695        -0.61763


--Link1--
%nproc=1
%mem=1GB
%Chk=58.chk
%NoSave
# Geom=AllCheck ZINDO(NStates=15,Singlets)
