%nproc=1
%mem=1GB
%Chk=59.chk
#T PM6 OPT

c(s1)cc(OC)c1~c([nH]1)cnc1_0_12

0  1
C           6.99879       -10.93715        -0.21823
N           6.17856        -9.84476        -0.20830
H           5.18937        -9.83595        -0.41351
C           6.93899        -8.75044         0.11989
C           8.20988        -9.26047         0.29488
N           8.23520       -10.61652         0.08629
C           6.42850        -7.41590         0.23273
S           7.39569        -6.08960        -0.26151
C           6.21386        -4.94754         0.20046
C           5.08756        -5.56563         0.70230
C           5.20109        -6.99200         0.71606
O           4.29190        -7.90133         1.16542
C           3.07513        -7.33755         1.64409
C           6.43458        -3.53931         0.07057
N           7.67309        -2.95935         0.10857
H           8.55235        -3.44814         0.21749
C           7.52890        -1.59860         0.02429
C           6.16633        -1.42140        -0.11147
N           5.49651        -2.62360        -0.05813
C           8.63834        -0.68905         0.08731
S           8.39913         1.00099        -0.04794
C          10.06799         1.34309         0.11831
C          10.79847         0.18291         0.28388
C           9.97797        -0.99012         0.28348
O          10.37378        -2.28875         0.39688
C          11.53097        -2.48668         1.20074
C          10.56549         2.68996         0.10384
N           9.79451         3.81563        -0.04809
H           8.79690         3.81629        -0.24302
C          10.57425         4.92179         0.14441
C          11.84841         4.39446         0.28653
N          11.83511         3.02263         0.26646
C          10.11490         6.28618         0.16012
S          11.21396         7.53643        -0.29122
C          10.07031         8.76044        -0.00205
C           8.86966         8.24939         0.42820
C           8.87356         6.81720         0.49302
O           7.83465         6.02093         0.87191
C           6.55563         6.64381         0.73183
H           6.64355       -11.93197        -0.45169
H           9.10736        -8.72346         0.57383
H           4.24087        -4.99489         1.06373
H           3.24972        -6.62445         2.45753
H           2.51843        -6.86953         0.82522
H           2.46202        -8.14948         2.04686
H           5.62441        -0.49135        -0.22714
H          11.87677         0.19072         0.39269
H          12.41039        -1.98993         0.78204
H          11.34713        -2.16431         2.23111
H          11.74004        -3.56167         1.21913
H          12.77470         4.93622         0.42951
H          10.33267         9.79830        -0.15248
H           8.03640         8.89160         0.68218
H           6.43075         7.48866         1.41961
H           6.39661         6.96434        -0.30419
H           5.78332         5.90886         0.97745


--Link1--
%nproc=1
%mem=1GB
%Chk=59.chk
%NoSave
# Geom=AllCheck ZINDO(NStates=15,Singlets)
