%nproc=1
%mem=1GB
%Chk=62.chk
#T PM6 OPT

c(nc1)ccc1~c(nc1)ccc1_4_1

0  1
C           0.31471        -1.52121         1.40030
N           1.10118        -1.54318         0.30591
C           1.49734        -0.33879        -0.17530
C          -0.08966        -0.35645         2.02673
C           0.34085         0.86401         1.50373
C           1.17119         0.90383         0.37309
C           1.66242         2.16978        -0.20029
N           0.87558         3.25634        -0.02328
C           1.28957         4.43915        -0.55824
C           2.87198         2.26511        -0.88975
C           3.26908         3.49321        -1.42547
C           2.46663         4.62855        -1.28340
C           2.81774         5.93858        -1.85663
N           2.33997         7.02300        -1.20314
C           2.62927         8.25389        -1.70895
C           3.57939         6.07733        -3.01505
C           3.85015         7.35443        -3.51565
C           3.36298         8.49614        -2.86896
C           3.58924         9.86289        -3.36964
N           3.59859        10.84644        -2.43840
C           3.79922        12.12479        -2.85690
C           3.76858        10.15490        -4.71862
C           3.97743        11.47797        -5.11745
C           3.99780        12.51757        -4.17981
C           4.20378        13.92285        -4.57771
C           4.91739        14.83467        -3.79973
N           5.14914        16.13402        -4.12735
C           4.64707        16.59873        -5.29728
C           3.92502        15.76357        -6.14570
C           3.70295        14.43299        -5.78057
C           4.92011        18.01304        -5.60835
C           4.05065        18.79748        -6.37045
N           4.24977        20.09875        -6.70171
C           5.37872        20.67035        -6.24006
C           6.31324        20.00297        -5.46940
C           6.07597        18.66453        -5.15282
H           0.00622        -2.49496         1.76911
H           2.10755        -0.41788        -1.07193
H          -0.72697        -0.39303         2.90378
H           0.03001         1.78952         1.98385
H           0.60415         5.26732        -0.38844
H           3.52480         1.40685        -1.00764
H           4.22567         3.54322        -1.94024
H           2.21908         9.07869        -1.12853
H           3.95220         5.21170        -3.55231
H           4.45543         7.43539        -4.41494
H           3.77709        12.85150        -2.04743
H           3.73401         9.37752        -5.47499
H           4.13031        11.67759        -6.17566
H           5.36284        14.54358        -2.85117
H           3.54101        16.11832        -7.09696
H           3.12264        13.80617        -6.45448
H           3.11351        18.39835        -6.75013
H           5.51540        21.71425        -6.50959
H           7.20649        20.50863        -5.12017
H           6.80211        18.12488        -4.54765


--Link1--
%nproc=1
%mem=1GB
%Chk=62.chk
%NoSave
# Geom=AllCheck ZINDO(NStates=15,Singlets)
