%nproc=1
%mem=1GB
%Chk=9.chk
#T PM6 OPT

c(s1)c(OCCCO2)c2c1~c(cc1)cc(c12)[nH]c(c2c3)ccc3_1_5

0  1
C          -2.83208        -0.64410         3.90235
C          -1.64156        -0.10392         3.40174
C          -0.64987        -0.96500         2.88529
C           0.64477        -0.76250         2.30779
C           1.42713         0.37296         2.03355
C           2.68945         0.21616         1.43651
C           3.21383        -1.04689         1.10848
C           2.42740        -2.18246         1.38539
C           1.16123        -2.01230         1.97699
N           0.21593        -2.94346         2.34320
H           0.31934        -3.93978         2.22275
C          -0.89130        -2.33795         2.89264
C          -2.07609        -2.89569         3.39038
C          -3.04342        -2.02065         3.89526
C           4.56439        -1.19088         0.49835
S           5.79920        -0.05668         0.89299
C           5.06608        -2.13013        -0.38955
O           4.27077        -3.12393        -0.87967
C           4.58539        -3.47278        -2.22851
C           5.72942        -4.47458        -2.30455
C           6.88485        -4.11823        -1.38118
O           7.23165        -2.73634        -1.48053
C           6.46570        -1.93945        -0.68301
C           6.99201        -0.79187        -0.10822
C           8.35299        -0.19057        -0.18539
C           8.54558         1.20483        -0.08664
C           9.83923         1.77568        -0.16542
C          10.34176         3.11666        -0.11895
C           9.74316         4.38086         0.02836
C          10.54527         5.53304         0.00262
C          11.93939         5.46842        -0.15902
C          12.53915         4.20082        -0.29369
C          11.72237         3.05547        -0.27226
N          12.05598         1.72274        -0.38953
H          12.99272         1.37911        -0.50961
C          10.92814         0.93075        -0.34019
C          10.79038        -0.45690        -0.43994
C           9.49138        -0.99232        -0.36186
C          12.76971         6.69852        -0.19681
S          12.31581         8.06353         0.74751
C          13.92784         6.98178        -0.90207
O          14.47980         6.05869        -1.74012
C          15.10139         6.64597        -2.88335
C          16.52396         7.10143        -2.58626
C          16.63594         7.85837        -1.27157
O          15.59263         8.82380        -1.14086
C          14.44859         8.29399        -0.62363
C          13.62861         9.03444         0.21343
C          13.78902        10.40126         0.69116
S          15.34978        11.03939         1.01714
C          12.82287        11.34100         1.01304
O          11.49524        11.05607         0.89867
C          10.71104        11.67393         1.91926
C          10.32319        13.09289         1.53248
C          11.48671        13.88289         0.94818
O          12.67781        13.73309         1.72034
C          13.38084        12.60728         1.40941
C          14.76534        12.59061         1.48129
C          15.72995        13.64924         1.87904
C          15.37247        14.62174         2.82505
C          16.25871        15.63859         3.22303
C          17.02463        13.70674         1.32224
C          17.90417        14.72075         1.73600
C          17.55213        15.68997         2.67012
N          19.20027        14.97877         1.35531
H          19.71956        14.42916         0.68712
C          19.69502        16.08566         2.00367
C          18.68110        16.55589         2.83787
C          18.93560        17.70016         3.62310
C          20.95077        16.69881         1.91340
C          21.17643        17.83159         2.70076
C          20.18516        18.32746         3.54419
H          -3.59718         0.01875         4.29942
H          -1.48550         0.97067         3.41098
H           1.06120         1.36547         2.27945
H           3.25506         1.12263         1.23228
H           2.78798        -3.18122         1.15978
H          -2.24576        -3.96740         3.38747
H          -3.97507        -2.42184         4.28840
H           4.79183        -2.57725        -2.83018
H           3.68860        -3.92752        -2.66537
H           5.37226        -5.47763        -2.04238
H           6.07876        -4.52146        -3.34289
H           6.67554        -4.40310        -0.34062
H           7.76730        -4.69700        -1.67764
H           7.70303         1.87759         0.04119
H           8.66798         4.47036         0.15219
H          10.04154         6.49242         0.10238
H          13.61313         4.10049        -0.41245
H          11.64865        -1.10600        -0.57674
H           9.39219        -2.07254        -0.43873
H          14.48990         7.46401        -3.28804
H          15.13237         5.87902        -3.66565
H          17.19842         6.23810        -2.54849
H          16.86143         7.73683        -3.41361
H          16.66051         7.17619        -0.41011
H          17.58849         8.40037        -1.25105
H          11.22300        11.64311         2.89137
H           9.80089        11.07525         2.04137
H           9.51622        13.07046         0.79050
H           9.92799        13.59947         2.42073
H          11.66458        13.62437        -0.10452
H          11.22793        14.94789         0.95613
H          14.38653        14.60583         3.28443
H          15.94421        16.37607         3.95548
H          17.35253        12.98737         0.57846
H          18.16917        18.09471         4.28324
H          21.72537        16.31549         1.25722
H          22.14076        18.33266         2.65282
H          20.38153        19.21032         4.14764


--Link1--
%nproc=1
%mem=1GB
%Chk=9.chk
%NoSave
# Geom=AllCheck ZINDO(NStates=15,Singlets)
