%nproc=1
%mem=1GB
%Chk=11.chk
#T PM6 OPT

c(s1)c(SCS2)c2c1c(s1)c(SCS2)c2c1c(s1)c(SCS2)c2c1c(s1)c(SCS2)c2c1

0  1
C           0.27710         1.05117         0.30852
S           0.45570        -0.55253        -0.24283
C          -0.95580         1.22086         0.88961
S          -1.60207         2.68951         1.57464
C          -3.26408         2.01943         1.90871
S          -3.33302         0.21451         1.63389
C          -1.73913         0.04722         0.90248
C          -1.10214        -1.05647         0.34704
C          -1.54747        -2.43623         0.17460
S          -3.21005        -2.79838        -0.10223
C          -0.83075        -3.62095         0.13690
S           0.90582        -3.88814         0.28717
C           0.88697        -5.68144         0.01835
S          -0.80694        -6.33443         0.00922
C          -1.63986        -4.78031        -0.01993
C          -2.98800        -4.50778        -0.16993
C          -4.11927        -5.39917        -0.41095
S          -3.93585        -6.81027        -1.39211
C          -5.44429        -5.30489        -0.02244
S          -6.24694        -4.06717         0.94269
C          -7.85624        -4.89553         1.07650
S          -7.95429        -6.34664        -0.00769
C          -6.25456        -6.38325        -0.47187
C          -5.56879        -7.32827        -1.21160
C          -6.03396        -8.55720        -1.83934
S          -7.59526        -8.61985        -2.60062
C          -5.41031        -9.78666        -1.99508
S          -3.82997       -10.34767        -1.46262
C          -3.98431       -12.06274        -2.07499
S          -5.54756       -12.32779        -2.97533
C          -6.19636       -10.73303        -2.68714
C          -7.42604       -10.25761        -3.05609
H           1.05879         1.77719         0.16932
H          -3.97877         2.51435         1.24362
H          -3.54291         2.23840         2.94269
H           1.45897        -6.16166         0.81603
H           1.36747        -5.91373        -0.93760
H          -8.66023        -4.19381         0.83480
H          -7.98720        -5.22934         2.10874
H          -3.95379       -12.74553        -1.22170
H          -3.14339       -12.29444        -2.73546
H          -8.21901       -10.77374        -3.57663


--Link1--
%nproc=1
%mem=1GB
%Chk=11.chk
%NoSave
# Geom=AllCheck ZINDO(NStates=15,Singlets)
