%nproc=1
%mem=1GB
%Chk=11.chk
#T PM6 OPT

c(s1)c(SCS2)c2c1c(s1)c(SCS2)c2c1c(s1)c(SCS2)c2c1c(s1)c(SCS2)c2c1

0  1
C           0.58903         0.79855         0.45741
S           0.65894        -0.76164        -0.23430
C          -0.60297         0.97693         1.11419
S          -1.15562         2.41690         1.93123
C          -2.82546         1.78298         2.30406
S          -2.95570        -0.00997         1.96498
C          -1.42906        -0.16652         1.10252
C          -0.87880        -1.24177         0.41925
C          -1.39770        -2.57906         0.17087
S          -3.06054        -2.82790        -0.20161
C          -0.74585        -3.79747         0.12026
S           0.96021        -4.16110         0.37375
C           0.87350        -5.92735        -0.03409
S          -0.84609        -6.49151        -0.17806
C          -1.60461        -4.89954        -0.14253
C          -2.93563        -4.55046        -0.30086
C          -4.11447        -5.37672        -0.55969
S          -3.99619        -6.82109        -1.50049
C          -5.44007        -5.20063        -0.19913
S          -6.18396        -3.90795         0.74049
C          -7.89180        -4.51438         0.66250
S          -8.00828        -6.09059        -0.22541
C          -6.30319        -6.23990        -0.64366
C          -5.65492        -7.25273        -1.32660
C          -6.16764        -8.48872        -1.90513
S          -7.74217        -8.53504        -2.64104
C          -5.58358        -9.74225        -2.02615
S          -4.01285       -10.33563        -1.49642
C          -4.13191       -11.98650        -2.27135
S          -5.81209       -12.31552        -2.90036
C          -6.40891       -10.69102        -2.66756
C          -7.63091       -10.19325        -3.03527
H           1.39900         1.49831         0.33366
H          -3.54867         2.31664         1.67929
H          -3.06167         1.97917         3.35327
H           1.37719        -6.50142         0.74760
H           1.39294        -6.10547        -0.98117
H          -8.52100        -3.76746         0.16849
H          -8.26431        -4.65928         1.67954
H          -3.86182       -12.75328        -1.54057
H          -3.42791       -12.03948        -3.10761
H          -8.44661       -10.70432        -3.52365


--Link1--
%nproc=1
%mem=1GB
%Chk=11.chk
%NoSave
# Geom=AllCheck ZINDO(NStates=15,Singlets)
