%nproc=1
%mem=1GB
%Chk=12.chk
#T PM6 OPT

c(nc1)ccc1c(nc1)ccc1c(nc1)ccc1c(nc1)ccc1

0  1
C           0.11460        -1.57715         0.68780
N          -0.76706        -0.63178         0.30803
C          -0.25105         0.57326        -0.05238
C           1.48231        -1.37671         0.71762
C           1.97760        -0.12991         0.33425
C           1.10751         0.89524        -0.07049
C           1.57565         2.22805        -0.48857
N           0.71800         3.25670        -0.27453
C           1.11549         4.50656        -0.63813
C           2.81835         2.44259        -1.07682
C           3.18851         3.73617        -1.45163
C           2.32951         4.82159        -1.24243
C           2.71406         6.18825        -1.63492
N           4.04341         6.44621        -1.62539
C           4.46053         7.69238        -1.97774
C           1.79728         7.16591        -2.01581
C           2.25937         8.43472        -2.38534
C           3.62610         8.73472        -2.37652
C           4.16946        10.05022        -2.75687
N           5.33560        10.40431        -2.15931
C           5.87216        11.60590        -2.47322
C           3.54325        10.88998        -3.68075
C           4.12254        12.11926        -3.99249
C           5.30854        12.48808        -3.37719
H          -0.32021        -2.52845         0.97994
H          -0.99929         1.30549        -0.34962
H           2.15034        -2.16849         1.03714
H           3.05145         0.03300         0.37510
H           0.38704         5.27624        -0.39593
H           3.50475         1.62447        -1.26879
H           4.16066         3.89428        -1.91645
H           5.53949         7.82779        -1.93640
H           0.73259         6.96205        -2.04856
H           1.52571         9.18674        -2.66619
H           6.79935        11.84630        -1.96103
H           2.62372        10.59784        -4.17569
H           3.64886        12.77892        -4.71443
H           5.78478        13.43691        -3.59722


--Link1--
%nproc=1
%mem=1GB
%Chk=12.chk
%NoSave
# Geom=AllCheck ZINDO(NStates=15,Singlets)
