%nproc=1
%mem=1GB
%Chk=12.chk
#T PM6 OPT

c(nc1)ccc1c(nc1)ccc1c(nc1)ccc1c(nc1)ccc1

0  1
C           0.10272        -1.57401         0.69088
N          -0.77175        -0.61886         0.32084
C          -0.24514         0.58110        -0.04147
C           1.47286        -1.38747         0.71126
C           1.97936        -0.14509         0.32743
C           1.11724         0.88927        -0.06851
C           1.59189         2.21885        -0.48872
N           0.74264         3.24982        -0.25919
C           1.13091         4.49461        -0.64437
C           2.82368         2.42862        -1.10306
C           3.18967         3.72142        -1.49094
C           2.33935         4.80942        -1.26084
C           2.70598         6.17920        -1.66148
N           3.53344         6.28431        -2.72834
C           3.90467         7.53077        -3.13364
C           2.25506         7.31424        -0.99051
C           2.65264         8.58018        -1.43304
C           3.49775         8.72392        -2.53824
C           3.94429        10.03376        -3.04463
N           5.15363        10.05189        -3.65986
C           5.60697        11.23516        -4.13509
C           3.17955        11.19580        -2.91256
C           3.66680        12.39969        -3.41919
C           4.90458        12.42337        -4.04188
H          -0.33978        -2.52210         0.98210
H          -0.98783         1.32080        -0.33452
H           2.13453        -2.18799         1.02261
H           3.05515         0.00677         0.35808
H           0.38397         5.25755        -0.43975
H           3.50003         1.60616        -1.31118
H           4.14895         3.87590        -1.98209
H           4.56478         7.53852        -3.99862
H           1.61980         7.23932        -0.11481
H           2.30529         9.44944        -0.87922
H           6.58309        11.19931        -4.61016
H           2.20429        11.17859        -2.43877
H           3.07795        13.30847        -3.32915
H           5.31207        13.34256        -4.44773


--Link1--
%nproc=1
%mem=1GB
%Chk=12.chk
%NoSave
# Geom=AllCheck ZINDO(NStates=15,Singlets)
