%nproc=1
%mem=1GB
%Chk=16.chk
#T PM6 OPT

c(s1)c(cccc2)c2c1c(s1)c(cccc2)c2c1c(s1)c(cccc2)c2c1c(s1)c(cccc2)c2c1

0  1
C           0.41041         0.78132        -0.15191
S           0.51731        -0.90180        -0.39534
C          -0.87445         1.15068         0.12091
C          -1.23615         2.49453         0.24887
C          -2.61118         2.65381         0.50134
C          -3.51639         1.56249         0.65500
C          -3.13914         0.20257         0.56402
C          -1.77921         0.02218         0.25518
C          -1.14794        -1.20280         0.03222
C          -1.66038        -2.58038         0.01424
S          -3.26093        -2.89525        -0.56702
C          -1.05465        -3.79482         0.32118
C           0.25237        -3.93815         0.82486
C           0.66361        -5.27960         0.97028
C          -0.15901        -6.39574         0.65487
C          -1.48314        -6.27965         0.18791
C          -1.91209        -4.94798         0.05149
C          -3.20594        -4.58993        -0.27486
C          -4.42521        -5.38618        -0.36802
S          -5.50037        -5.19429        -1.69673
C          -4.95465        -6.30470         0.51949
C          -4.35107        -6.63554         1.74671
C          -5.06007        -7.60029         2.48633
C          -6.28400        -8.17226         2.05239
C          -6.90987        -7.84690         0.83005
C          -6.22027        -6.88312         0.06652
C          -6.64838        -6.37708        -1.15896
C          -7.85936        -6.64186        -1.95636
S          -9.37564        -6.93722        -1.13987
C          -8.09356        -6.64536        -3.33131
C          -7.14283        -6.36513        -4.33285
C          -7.67234        -6.42433        -5.64373
C          -9.02161        -6.77267        -5.94662
C          -9.97956        -7.08858        -4.96412
C          -9.46118        -6.99501        -3.67556
C         -10.24579        -7.23649        -2.57350
H           1.28551         1.40661        -0.26890
H          -0.56174         3.33393         0.14341
H          -3.00850         3.66561         0.58523
H          -4.56473         1.79231         0.85100
H          -3.87176        -0.57717         0.71248
H           0.92042        -3.13365         1.09872
H           1.67118        -5.47109         1.34197
H           0.25657        -7.39407         0.79593
H          -2.08540        -7.15326        -0.02958
H          -3.42970        -6.21384         2.12775
H          -4.64977        -7.92513         3.44302
H          -6.76949        -8.90099         2.70275
H          -7.83927        -8.32882         0.56309
H          -6.10436        -6.11269        -4.17809
H          -7.00771        -6.19108        -6.47664
H          -9.32345        -6.79635        -6.99404
H         -10.99895        -7.35610        -5.21328
H         -11.28412        -7.52797        -2.53721


--Link1--
%nproc=1
%mem=1GB
%Chk=16.chk
%NoSave
# Geom=AllCheck ZINDO(NStates=15,Singlets)
