%nproc=1
%mem=1GB
%Chk=17.chk
#T PM6 OPT

c(s1)c(C)c(C)c1c(s1)c(C)c(C)c1c(s1)c(C)c(C)c1c(s1)c(C)c(C)c1

0  1
C           0.40933         1.91938         0.08263
S           1.98011         1.38881         0.42736
C          -0.41537         0.90340        -0.32117
C          -1.88169         1.08399        -0.58474
C           0.31206        -0.35432        -0.45621
C          -0.37022        -1.60786        -0.92130
C           1.66269        -0.22561        -0.10062
C           2.74252        -1.22778        -0.07753
S           2.41649        -2.86481         0.32258
C           4.11261        -1.05870        -0.29530
C           4.78772         0.23124        -0.67734
C           4.86722        -2.29907        -0.09856
C           6.37132        -2.34694        -0.12390
C           4.02672        -3.40305         0.05449
C           4.34891        -4.83678         0.09861
S           5.83019        -5.38503         0.75170
C           3.61185        -5.92755        -0.36427
C           2.32636        -5.84892        -1.13907
C           4.22614        -7.20855        -0.00264
C           3.53936        -8.52639        -0.23670
C           5.50498        -7.04698         0.53090
C           6.51830        -8.05723         0.86277
S           6.60937        -9.51015        -0.06764
C           7.54466        -8.03495         1.81844
C           7.83657        -6.91935         2.78065
C           8.35653        -9.24303         1.78293
C           9.54239        -9.52511         2.65140
C           7.89408       -10.13274         0.83989
H           0.14743         2.96359         0.23280
H          -2.18608         2.12700        -0.44218
H          -2.46713         0.46803         0.10472
H          -2.13234         0.80185        -1.61095
H          -1.25991        -1.37949        -1.51800
H          -0.69679        -2.19766        -0.05803
H           0.27809        -2.21274        -1.55774
H           4.14966         0.85537        -1.30763
H           5.68684         0.05122        -1.27405
H           5.07944         0.78772         0.21964
H           6.82716        -1.35772        -0.20583
H           6.72876        -2.94949        -0.96346
H           6.75538        -2.75374         0.81705
H           2.30577        -4.97513        -1.79693
H           1.46971        -5.81635        -0.45948
H           2.20847        -6.71953        -1.79369
H           2.45055        -8.41632        -0.23987
H           3.76585        -9.24026         0.56147
H           3.83815        -8.94870        -1.20144
H           6.92383        -6.44025         3.14220
H           8.47761        -6.17254         2.29904
H           8.35932        -7.28350         3.67029
H          10.10844        -8.61286         2.86265
H          10.22812       -10.22413         2.15989
H           9.22118        -9.96851         3.59897
H           8.28425       -11.11682         0.61737


--Link1--
%nproc=1
%mem=1GB
%Chk=17.chk
%NoSave
# Geom=AllCheck ZINDO(NStates=15,Singlets)
