%nproc=1
%mem=1GB
%Chk=17.chk
#T PM6 OPT

c(s1)c(C)c(C)c1c(s1)c(C)c(C)c1c(s1)c(C)c(C)c1c(s1)c(C)c(C)c1

0  1
C           0.58678         1.92093        -0.29791
S           2.13077         1.39027         0.14827
C          -0.17929         0.91051        -0.85522
C          -1.59424         1.11442        -1.29238
C           0.56937        -0.33482        -0.94103
C          -0.04027        -1.58568        -1.50611
C           1.87379        -0.21387        -0.44102
C           2.94320        -1.21510        -0.30091
S           2.58090        -2.86444        -0.01499
C           4.32662        -1.03990        -0.32985
C           5.03816         0.23824        -0.68688
C           5.04519        -2.24985         0.07844
C           6.52403        -2.23478         0.35077
C           4.21029        -3.36951         0.15055
C           4.56342        -4.79040         0.34510
S           6.02255        -5.40442        -0.33549
C           3.85802        -5.84219         0.94029
C           2.44692        -5.78178         1.45686
C           4.67020        -7.05988         1.05369
C           4.22331        -8.27144         1.83029
C           5.86078        -6.97129         0.33280
C           6.86189        -8.01559         0.07324
S           6.34288        -9.64278        -0.18930
C           8.25412        -7.92854        -0.06412
C           9.06461        -6.66944         0.03475
C           8.86677        -9.22558        -0.31870
C          10.32793        -9.47614        -0.52246
C           7.92209       -10.23025        -0.35268
H           0.29159         2.94086        -0.11717
H          -1.93257         2.13775        -1.09882
H          -2.26194         0.43535        -0.75197
H          -1.69384         0.92740        -2.36633
H          -1.01017        -1.39317        -1.97428
H          -0.21471        -2.31711        -0.71129
H           0.60548        -2.02126        -2.27463
H           4.54544         0.74452        -1.52328
H           6.06505         0.04863        -1.01539
H           5.08412         0.91102         0.17497
H           6.85789        -1.23791         0.66005
H           7.08536        -2.51249        -0.54587
H           6.78504        -2.90419         1.17567
H           1.76441        -5.41005         0.68834
H           2.38189        -5.15738         2.35130
H           2.05789        -6.77336         1.70695
H           3.51953        -8.01133         2.62590
H           5.06745        -8.75536         2.33183
H           3.73103        -8.99044         1.16734
H           8.84099        -6.13349         0.96194
H           8.86567        -6.02004        -0.82300
H          10.13963        -6.87371         0.03216
H          10.71192        -8.85458        -1.33776
H          10.52190       -10.52181        -0.78484
H          10.88769        -9.24904         0.39021
H           8.09140       -11.28701        -0.50426


--Link1--
%nproc=1
%mem=1GB
%Chk=17.chk
%NoSave
# Geom=AllCheck ZINDO(NStates=15,Singlets)
