%nproc=1
%mem=1GB
%Chk=18.chk
#T PM6 OPT

c(cc1)ccc1c(cc1)ccc1c(cc1)ccc1c(cc1)ccc1

0  1
C          -1.52857        -0.18005         0.67882
C          -1.04991         0.94025         0.00962
C           0.31514         1.05689        -0.27926
C          -0.64184        -1.17944         1.06360
C           0.72404        -1.05346         0.78293
C           1.24053         0.06533         0.10179
C           2.69027         0.19559        -0.20052
C           3.32551         1.44446        -0.26474
C           4.69625         1.56793        -0.55024
C           3.50072        -0.92720        -0.43778
C           4.87126        -0.80404        -0.72396
C           5.50514         0.44436        -0.78767
C           6.95243         0.57585        -1.09042
C           7.88481        -0.38668        -0.66673
C           9.25485        -0.26266        -0.95360
C           7.46278         1.66290        -1.81297
C           8.83277         1.78681        -2.10001
C           9.76486         0.82434        -1.67618
C          11.21238         0.95575        -1.97892
C          11.84443         2.21088        -2.03613
C          13.20781         2.33651        -2.32686
C          12.01826        -0.17482        -2.22178
C          13.38495        -0.05402        -2.50039
C          13.97874         1.20059        -2.55604
H          -2.58814        -0.27430         0.89982
H          -1.73653         1.72594        -0.29490
H           0.64289         1.93942        -0.82400
H          -1.00795        -2.05865         1.58759
H           1.38492        -1.84807         1.12164
H           2.76709         2.35874        -0.07495
H           5.12276         2.56825        -0.56525
H           3.07635        -1.92855        -0.42246
H           5.43153        -1.71742        -0.91492
H           7.56374        -1.24820        -0.08627
H           9.92195        -1.03688        -0.57860
H           6.79640         2.43760        -2.18820
H           9.15467         2.64799        -2.68065
H          11.28121         3.12135        -1.84026
H          13.66509         3.32123        -2.36855
H          11.58699        -1.17259        -2.20996
H          13.98092        -0.94600        -2.67838
H          15.03833         1.29586        -2.77702


--Link1--
%nproc=1
%mem=1GB
%Chk=18.chk
%NoSave
# Geom=AllCheck ZINDO(NStates=15,Singlets)
