%nproc=1
%mem=1GB
%Chk=22.chk
#T PM6 OPT

C(C1=O)=CC=C1C(C1=O)=CC=C1C(C1=O)=CC=C1C(C1=O)=CC=C1

0  1
C           0.79138        -1.40015         0.08257
C          -0.65042        -1.24971        -0.16361
O          -1.38164        -2.14986        -0.53841
C           1.20166        -0.19465         0.48408
C           0.10668         0.73238         0.50852
C          -1.03632         0.15303         0.12470
C          -2.34540         0.70026         0.00110
C          -2.73927         2.09686         0.31038
O          -1.99750         2.97043         0.73177
C          -3.48274         0.12121        -0.40540
C          -4.57751         1.04575        -0.38535
C          -4.18799         2.25484         0.02910
C          -4.93859         3.45543         0.17086
C          -6.38392         3.61771        -0.12757
O          -7.13692         2.74229        -0.52001
C          -4.54455         4.67195         0.56962
C          -5.62562         5.61260         0.52270
C          -6.75893         5.02929         0.12312
C          -8.04859         5.59081        -0.07565
C          -8.33049         6.99182        -0.46589
O          -7.51391         7.87077        -0.66907
C          -9.25737         5.01772         0.00330
C         -10.29965         5.96107        -0.28728
C          -9.78837         7.15765        -0.58248
H           1.34402        -2.31191        -0.04763
H           2.21348         0.06789         0.75660
H           0.22548         1.76666         0.80406
H          -3.59484        -0.90675        -0.72383
H          -5.57940         0.76905        -0.68682
H          -3.54406         4.94645         0.87748
H          -5.50863         6.65628         0.78217
H          -9.44907         3.98412         0.25925
H         -11.35122         5.71422        -0.26758
H         -10.28130         8.07303        -0.85183


--Link1--
%nproc=1
%mem=1GB
%Chk=22.chk
%NoSave
# Geom=AllCheck ZINDO(NStates=15,Singlets)
