%nproc=1
%mem=1GB
%Chk=23.chk
#T PM6 OPT

C(=C1C(=O)NC(=O)C12)C3C(=O)NC(=O)C=3C=2C(=C1C(=O)NC(=O)C12)C3C(=O)NC(=O)C=3C=2C(=C1C(=O)NC(=O)C12)C3C(=O)NC(=O)C=3C=2C(=C1C(=O)NC(=O)C12)C3C(=O)NC(=O)C=3C=2

0  1
C          -0.24558         1.71946         1.66009
C           0.88338         0.97008         1.91662
C           2.17882         1.48739         2.36512
O           2.37683         2.61808         2.75970
N           3.09442         0.53647         2.05984
C           2.54001        -0.33608         1.17969
O           3.05841        -0.76693         0.16346
C           1.08030        -0.33491         1.40742
C          -1.10284         1.11353         0.76978
C          -2.19458         1.72546         0.01257
O          -2.54678         2.88157         0.10483
N          -2.63081         0.78303        -0.86064
C          -1.84886        -0.32782        -0.84302
O          -1.81519        -1.21715        -1.67308
C          -0.92036        -0.20158         0.29978
C           0.09147        -1.07426         0.74411
C           0.05452        -2.57086         0.52793
C           1.13726        -3.43390         0.37787
C           2.54227        -3.34094         0.78413
O           2.90594        -2.87336         1.84705
N           3.24333        -4.12143        -0.06482
C           2.41208        -4.97649        -0.70331
O           2.67452        -5.70702        -1.64006
C           1.05493        -4.75136        -0.16480
C          -1.13362        -3.28890         0.31431
C          -2.54082        -2.88986         0.53476
O          -2.91404        -1.94871         1.20770
N          -3.31652        -3.78038        -0.12160
C          -2.56267        -4.71140        -0.74624
O          -2.87258        -5.39275        -1.70573
C          -1.20171        -4.62339        -0.18547
C          -0.11758        -5.50287        -0.29852
C          -0.20117        -7.02012        -0.47382
C           0.87740        -7.90642        -0.58986
C           2.25909        -7.81191        -0.08256
O           2.60536        -7.11900         0.85560
N           2.98784        -8.74456        -0.73388
C           2.19017        -9.56415        -1.45208
O           2.51423       -10.32321        -2.34541
C           0.80026        -9.24816        -1.07933
C          -1.37821        -7.76563        -0.59989
C          -2.73812        -7.50547        -0.09408
O          -2.99603        -6.79053         0.85606
N          -3.57563        -8.32496        -0.76519
C          -2.88360        -9.24676        -1.46871
O          -3.30543        -9.99485        -2.32967
C          -1.46449        -9.10091        -1.09427
C          -0.38282        -9.98004        -1.22513
C          -0.49553       -11.48554        -1.40669
C           0.57121       -12.39162        -1.54073
C           1.87174       -12.42561        -0.83567
O           2.13740       -11.75282         0.14445
N           2.56542       -13.49990        -1.29533
C           1.72710       -14.39366        -1.87191
O           1.92212       -15.57153        -2.09042
C           0.44130       -13.71255        -2.02766
C          -1.69934       -12.21557        -1.40917
C          -2.92477       -12.01868        -0.60301
O          -3.00791       -11.26754         0.35179
N          -3.81982       -12.97207        -0.96947
C          -3.20283       -13.98741        -1.62016
O          -3.62084       -15.10710        -1.82843
C          -1.83970       -13.53267        -1.89703
C          -0.77292       -14.30450        -2.29499
H          -0.33815         2.76153         1.94493
H           4.06246         0.80751         1.96878
H          -3.28677         0.98865        -1.59795
H           4.24267        -4.24354        -0.03100
H          -4.29883        -3.63990        -0.29414
H           3.99007        -8.82654        -0.68153
H          -4.57957        -8.30131        -0.69460
H           3.42337       -13.80426        -0.86103
H          -4.68791       -13.11513        -0.47692
H          -0.87192       -15.35188        -2.55749


--Link1--
%nproc=1
%mem=1GB
%Chk=23.chk
%NoSave
# Geom=AllCheck ZINDO(NStates=15,Singlets)
