%nproc=1
%mem=1GB
%Chk=3.chk
#T PM6 OPT

c(c(nsn1)c12)ccc2c(c(nsn1)c12)ccc2c(c(nsn1)c12)ccc2c(c(nsn1)c12)ccc2

0  1
C          -0.53421        -1.91687        -0.21453
C          -1.57765        -1.25560         0.46389
N          -2.58329        -1.87125         1.11176
S          -3.53603        -0.67515         1.74534
N          -2.72117         0.67475         1.23721
C          -1.65903         0.26113         0.52513
C           0.40157        -1.08785        -0.84331
C           0.32450         0.32729        -0.80597
C          -0.67050         1.07849        -0.12078
C          -0.69392         2.55280        -0.06194
C           0.50066         3.34051         0.00447
N           1.76133         2.87056         0.01831
S           2.78022         4.16418         0.09525
N           1.69386         5.40346         0.13963
C           0.45687         4.87132         0.07652
C          -1.87234         3.33173        -0.06235
C          -1.91043         4.75161         0.00267
C          -0.77621         5.59631         0.07895
C          -0.84431         7.07241         0.13232
C          -1.90579         7.78454         0.77585
N          -2.94479         7.23681         1.43488
S          -3.90647         8.46358         1.97079
N          -3.06741         9.77015         1.41823
C          -1.96676         9.31813         0.78718
C           0.11289         7.93086        -0.45720
C           0.06990         9.35095        -0.42515
C          -0.95322        10.12207         0.17397
C          -0.97938        11.60057         0.18179
C          -0.42040        12.39583        -0.87366
N           0.17274        11.95794        -2.00154
S           0.64331        13.28716        -2.86881
N           0.11455        14.50508        -1.88016
C          -0.45468        13.91499        -0.81947
C          -1.54513        12.38107         1.23071
C          -1.58098        13.79813         1.27235
C          -1.04075        14.60277         0.26594
H          -0.46672        -2.99742        -0.24668
H           1.22889        -1.54875        -1.38349
H           1.10631         0.86191        -1.35039
H          -2.84008         2.82863        -0.11840
H          -2.90620         5.19972        -0.01275
H           0.96156         7.49631        -0.98924
H           0.90593         9.85924        -0.90968
H          -1.99221        11.87384         2.08770
H          -2.05048        14.27933         2.13123
H          -1.06740        15.68457         0.30805


--Link1--
%nproc=1
%mem=1GB
%Chk=3.chk
%NoSave
# Geom=AllCheck ZINDO(NStates=15,Singlets)
