%nproc=1
%mem=1GB
%Chk=4.chk
#T PM6 OPT

c(cc1)cc(c12)[nH]c(c2c3)ccc3c(cc1)cc(c12)[nH]c(c2c3)ccc3c(cc1)cc(c12)[nH]c(c2c3)ccc3c(cc1)cc(c12)[nH]c(c2c3)ccc3

0  1
C          -1.05596        -5.12292         2.00252
C          -2.33206        -4.68808         2.35254
C          -2.78563        -3.42181         1.96447
C          -0.19785        -4.31039         1.25572
C          -0.66789        -3.04700         0.87702
C          -1.93841        -2.58073         1.21323
N          -0.05340        -2.05192         0.15369
H           0.88088        -2.11381        -0.22234
C          -0.88084        -0.96336         0.01060
C          -2.07042        -1.26317         0.66704
C          -3.09840        -0.29174         0.67468
C          -0.66910         0.25146        -0.64319
C          -1.71590         1.18547        -0.63127
C          -2.94011         0.94948         0.02031
C          -4.02634         1.96680         0.02155
C          -3.73649         3.34290         0.05358
C          -4.74169         4.32488         0.04987
C          -5.38362         1.58262        -0.01008
C          -6.38066         2.57236        -0.00067
C          -6.09225         3.93346         0.02782
N          -7.75079         2.45270        -0.01973
H          -8.24740         1.57440        -0.03656
C          -8.35338         3.68874        -0.02296
C          -7.33864         4.63936         0.01989
C          -7.69841         6.00768         0.04231
C          -9.70478         4.03500        -0.06223
C         -10.02485         5.40151        -0.06747
C          -9.05034         6.41488        -0.00787
C          -9.42720         7.85698         0.00099
C         -10.62597         8.29548         0.59296
C         -11.01100         9.64749         0.60860
C          -8.59239         8.83408        -0.58327
C          -8.97639        10.18621        -0.54074
C         -10.16675        10.61507         0.03550
N          -8.33059        11.30700        -1.01375
H          -7.43608        11.29826        -1.47436
C          -9.07418        12.43999        -0.76938
C         -10.23326        12.03881        -0.11573
C         -11.17735        13.02887         0.24996
C          -8.81025        13.77618        -1.07706
C          -9.77690        14.72927        -0.71674
C         -10.97078        14.39431        -0.05142
C         -11.97676        15.43357         0.31715
C         -13.35190        15.13768         0.35817
C         -14.32172        16.09381         0.70908
C         -11.58599        16.75278         0.63541
C         -12.56480        17.70621         0.96836
C         -13.92250        17.40652         1.01715
N         -12.43521        19.03565         1.29844
H         -11.55753        19.53138         1.34035
C         -13.66047        19.60250         1.56256
C         -14.61624        18.60080         1.39737
C         -15.97236        18.92388         1.61601
C         -13.99025        20.91267         1.93244
C         -15.34091        21.20641         2.14324
C         -16.32002        20.22809         1.98879
H          -0.72071        -6.10939         2.31510
H          -2.98326        -5.33618         2.93386
H          -3.78187        -3.09134         2.24194
H           0.79554        -4.65291         0.98486
H          -4.01481        -0.52120         1.21022
H           0.26453         0.47153        -1.15051
H          -1.55430         2.12071        -1.16473
H          -2.70421         3.68492         0.09486
H          -4.47339         5.37682         0.06695
H          -5.66636         0.53506        -0.05411
H          -6.90150         6.74214         0.10804
H         -10.48610         3.28285        -0.09942
H         -11.07991         5.66240        -0.13180
H         -11.29303         7.58371         1.07509
H         -11.95000         9.93934         1.06941
H          -7.66404         8.55581        -1.07212
H         -12.06996        12.70806         0.77877
H          -7.90006        14.07555        -1.58605
H          -9.57556        15.76389        -0.98825
H         -13.70762        14.14181         0.10172
H         -15.37191        15.81861         0.73400
H         -10.53931        17.04064         0.63798
H         -16.74300        18.16816         1.49800
H         -13.23078        21.67804         2.05440
H         -15.63046        22.21425         2.43288
H         -17.36464        20.47750         2.15878


--Link1--
%nproc=1
%mem=1GB
%Chk=4.chk
%NoSave
# Geom=AllCheck ZINDO(NStates=15,Singlets)
