%nproc=1
%mem=1GB
%Chk=4.chk
#T PM6 OPT

c(cc1)cc(c12)[nH]c(c2c3)ccc3c(cc1)cc(c12)[nH]c(c2c3)ccc3c(cc1)cc(c12)[nH]c(c2c3)ccc3c(cc1)cc(c12)[nH]c(c2c3)ccc3

0  1
C          -1.07722        -5.14006        -1.94276
C          -2.35219        -4.70379        -2.29510
C          -2.80132        -3.43321        -1.91626
C          -0.21590        -4.32483        -1.20256
C          -0.68214        -3.05779        -0.83156
C          -1.95126        -2.59000        -1.17065
N          -0.06510        -2.06046        -0.11346
H           0.86893        -2.12266         0.26305
C          -0.89105        -0.97038         0.02670
C          -2.07980        -1.26944        -0.63137
C          -3.10504        -0.29555        -0.64491
C          -0.67894         0.24493         0.67947
C          -1.72422         1.18060         0.66379
C          -2.94633         0.94651         0.00770
C          -4.03044         1.96597        -0.00064
C          -3.73822         3.34174        -0.02589
C          -4.74192         4.32515        -0.03015
C          -5.38847         1.58374         0.01628
C          -6.38361         2.57478        -0.00136
C          -6.09302         3.93532        -0.02285
N          -7.75385         2.45640         0.00455
H          -8.25168         1.57882         0.01533
C          -8.35457         3.69314         0.00694
C          -7.33837         4.64242        -0.02394
C          -7.69571         6.01133        -0.03664
C          -9.70560         4.04049         0.03632
C         -10.02415         5.40706         0.03136
C          -9.04769         6.41982        -0.00675
C          -9.42327         7.86244        -0.01332
C         -10.58715         8.31886         0.63295
C         -10.96752         9.67188         0.63908
C          -8.62503         8.82132        -0.67338
C          -9.01946        10.17031        -0.66730
C         -10.16757        10.61789        -0.02571
N          -8.42605        11.26875        -1.24983
H          -7.57994        11.24104        -1.79065
C          -9.15462        12.40888        -0.99289
C         -10.24704        12.03463        -0.22051
C         -11.15895        13.03612         0.18692
C          -8.92684        13.72945        -1.38515
C          -9.84130        14.70046        -0.94957
C         -10.96573        14.39054        -0.16316
C         -11.91391        15.44692         0.28543
C         -12.18848        16.56973        -0.51624
C         -13.07011        17.58626        -0.11220
C         -12.56619        15.35670         1.53358
C         -13.45946        16.36956         1.91976
C         -13.72387        17.48280         1.12848
N         -14.21466        16.49898         3.06204
H         -14.22692        15.83073         3.81781
C         -14.95426        17.65819         3.03671
C         -14.66508        18.29949         1.83296
C         -15.30040        19.52797         1.55559
C         -15.84758        18.18132         3.97953
C         -16.46309        19.40067         3.68102
C         -16.19550        20.06665         2.48735
H          -0.74553        -6.13006        -2.24786
H          -3.00617        -5.35435        -2.87051
H          -3.79691        -3.10177        -2.19493
H           0.77649        -4.66856        -0.92972
H          -4.01996        -0.52444        -1.18315
H           0.25341         0.46386         1.18962
H          -1.56285         2.11556         1.19783
H          -2.70519         3.68270        -0.05409
H          -4.47194         5.37678        -0.03998
H          -5.67368         0.53674         0.05624
H          -6.89525         6.74444        -0.05249
H         -10.48821         3.28934         0.06352
H         -11.08119         5.66693         0.04638
H         -11.23055         7.62168         1.16529
H         -11.87358         9.97917         1.15229
H          -7.72177         8.53085        -1.20129
H         -12.02172        12.73430         0.77338
H          -8.07331        14.00602        -1.99510
H          -9.64283        15.73242        -1.23414
H         -11.72275        16.67353        -1.49420
H         -13.24863        18.44007        -0.75884
H         -12.37911        14.52260         2.20305
H         -15.09788        20.05359         0.62738
H         -16.05896        17.66566         4.91051
H         -17.16145        19.83528         4.39278
H         -16.68527        21.01377         2.27503


--Link1--
%nproc=1
%mem=1GB
%Chk=4.chk
%NoSave
# Geom=AllCheck ZINDO(NStates=15,Singlets)
