%nproc=1
%mem=1GB
%Chk=7.chk
#T PM6 OPT

c(s1)cc(N(=O)=O)c1c(s1)cc(N(=O)=O)c1c(s1)cc(N(=O)=O)c1c(s1)cc(N(=O)=O)c1

0  1
C          -1.28008         0.58925         0.69649
S          -0.34401        -0.75415         1.16030
C          -0.64128         1.35598        -0.24589
C           0.63881         0.81717        -0.60308
N           1.48091         1.45690        -1.57014
O           1.84730         2.61067        -1.29350
O           1.74515         0.82682        -2.59494
C           0.94962        -0.35875         0.07071
C           2.13079        -1.20773         0.00987
S           2.03324        -2.90175         0.26837
C           3.43990        -0.84775        -0.23650
C           4.34116        -1.97363        -0.27281
N           5.73385        -1.80781        -0.58161
O           6.37059        -1.04302         0.15021
O           6.15491        -2.39084        -1.58946
C           3.71645        -3.18337        -0.00049
C           4.21391        -4.54965         0.11028
S           5.81299        -4.93042         0.58230
C           3.48997        -5.71695        -0.06426
C           4.26038        -6.90702         0.15134
N           3.68509        -8.21450         0.05038
O           2.74383        -8.45831         0.81504
O           4.15984        -8.97911        -0.79835
C           5.58816        -6.64456         0.44792
C           6.69928        -7.55673         0.68141
S           8.31896        -7.11279         0.27926
C           6.67333        -8.84370         1.19757
C           7.97574        -9.44891         1.27268
N           8.25993       -10.77493         1.77196
O           7.29273       -11.43944         2.16463
O           9.44181       -11.14010         1.77731
C           8.95753        -8.60088         0.80870
H          -2.25167         0.75828         1.14229
H          -1.06749         2.26035        -0.66644
H           3.76944         0.17158        -0.40746
H           2.44005        -5.74139        -0.33803
H           5.77334        -9.35615         1.52033
H          10.02364        -8.78217         0.74934


--Link1--
%nproc=1
%mem=1GB
%Chk=7.chk
%NoSave
# Geom=AllCheck ZINDO(NStates=15,Singlets)
