%nproc=1
%mem=1GB
%Chk=7.chk
#T PM6 OPT

c(s1)cc(N(=O)=O)c1c(s1)cc(N(=O)=O)c1c(s1)cc(N(=O)=O)c1c(s1)cc(N(=O)=O)c1

0  1
C          -0.52233         1.52344         0.61418
S           1.15543         1.21802         0.68474
C          -1.22386         0.41396         0.21075
C          -0.36283        -0.70574        -0.04686
N          -0.88094        -1.96374        -0.49833
O          -1.73519        -2.49474         0.21734
O          -0.46183        -2.38366        -1.58464
C           0.98311        -0.43548         0.17942
C           2.16854        -1.28298         0.07349
S           2.13748        -2.97912         0.35508
C           3.46160        -0.88694        -0.21180
C           4.39508        -1.97851        -0.26245
N           5.77770        -1.77028        -0.58042
O           6.40582        -1.02332         0.18544
O           6.20339        -2.29902        -1.60841
C           3.81743        -3.21428        -0.00019
C           4.39071        -4.55967         0.05433
S           6.00858        -4.85730         0.54903
C           3.76481        -5.76398        -0.22345
C           4.61816        -6.91130        -0.03900
N           4.15621        -8.25441        -0.26380
O           3.68340        -8.49177        -1.38023
O           4.22184        -9.03839         0.69156
C           5.89244        -6.57770         0.39623
C           7.05244        -7.40842         0.70503
S           7.36558        -8.90267        -0.09299
C           8.06674        -7.13971         1.61419
C           9.08001        -8.15531         1.65708
N          10.26350        -8.12311         2.48872
O          10.41422        -7.11816         3.19882
O          11.03274        -9.08787         2.42435
C           8.79512        -9.19192         0.79598
H          -0.91983         2.49867         0.86988
H          -2.30288         0.39913         0.09576
H           3.75201         0.14245        -0.40680
H           2.73015        -5.84984        -0.54196
H           8.09880        -6.24950         2.23378
H           9.36549       -10.09757         0.62846


--Link1--
%nproc=1
%mem=1GB
%Chk=7.chk
%NoSave
# Geom=AllCheck ZINDO(NStates=15,Singlets)
