%nproc=1
%mem=1GB
%Chk=8.chk
#T PM6 OPT

c(s1)cc(c2ccc(F)cc2)c1c(s1)cc(c2ccc(F)cc2)c1c(s1)cc(c2ccc(F)cc2)c1c(s1)cc(c2ccc(F)cc2)c1

0  1
C          -0.30666        -1.38736         0.60530
S           0.75424        -2.63584         0.99764
C           0.34401        -0.36534        -0.03223
C           1.76779        -0.58773        -0.25693
C           2.60667         0.42080        -0.98720
C           2.03187         1.63382        -1.45649
C           2.79385         2.57045        -2.18891
C           4.12497         2.35984        -2.40696
F           4.86302         3.25882        -3.08142
C           4.73935         1.20959        -1.93509
C           3.94938         0.25322        -1.27498
C           2.14844        -1.85495         0.26561
C           3.40622        -2.62814         0.33235
S           3.44736        -4.33537         0.17987
C           4.69228        -2.21583         0.61355
C           5.75336        -3.21766         0.46926
C           7.19180        -2.84070         0.57931
C           7.54501        -1.66204         1.28051
C           8.87293        -1.23664         1.40864
C           9.88131        -1.98524         0.83217
F          11.15590        -1.59844         0.96980
C           9.57705        -3.13402         0.11443
C           8.23954        -3.54542        -0.03015
C           5.19025        -4.48631         0.25560
C           5.74075        -5.85452         0.14751
S           4.93551        -7.08517        -0.73601
C           6.88030        -6.40713         0.69554
C           7.08319        -7.83990         0.44766
C           8.27328        -8.55695         0.97055
C           8.94383        -9.53793         0.22614
C          10.08927       -10.18035         0.71216
C          10.61721        -9.80471         1.93501
F          11.74081       -10.38501         2.37612
C          10.00132        -8.82049         2.69276
C           8.83921        -8.19523         2.21019
C           6.02765        -8.37781        -0.31030
C           5.69566        -9.74791        -0.78219
S           4.32899       -10.06265        -1.81783
C           6.29069       -10.97304        -0.50401
C           5.72579       -12.11689        -1.16780
C           6.14896       -13.51821        -1.01987
C           5.19846       -14.55131        -1.02775
C           5.58616       -15.88168        -0.84412
C           6.92729       -16.18591        -0.65173
F           7.29717       -17.46074        -0.48019
C           7.88717       -15.18137        -0.63501
C           7.49910       -13.84880        -0.81424
C           4.67061       -11.72706        -1.96276
H          -1.35880        -1.44301         0.85980
H          -0.21196         0.51398        -0.33717
H           0.99843         1.88846        -1.28296
H           2.31947         3.47490        -2.57488
H           5.79174         1.04191        -2.08732
H           4.48242        -0.65288        -1.04102
H           4.90196        -1.18007         0.84232
H           6.79307        -1.03788         1.75628
H           9.11756        -0.33538         1.96366
H          10.38552        -3.70574        -0.33196
H           8.05423        -4.42870        -0.63288
H           7.57536        -5.81807         1.27947
H           8.58265        -9.83991        -0.75159
H          10.57258       -10.95777         0.12891
H          10.42669        -8.54360         3.65221
H           8.39844        -7.40954         2.82125
H           7.11663       -11.10261         0.17304
H           4.13910       -14.33404        -1.15260
H           4.84865       -16.67766        -0.84281
H           8.92900       -15.44484        -0.47900
H           8.26770       -13.08073        -0.79267
H           4.05003       -12.33675        -2.60448


--Link1--
%nproc=1
%mem=1GB
%Chk=8.chk
%NoSave
# Geom=AllCheck ZINDO(NStates=15,Singlets)
