%nproc=1
%mem=1GB
%Chk=9.chk
#T PM6 OPT

C(C1=C)=CC=C1C(C1=C)=CC=C1C(C1=C)=CC=C1C(C1=C)=CC=C1

0  1
C           1.02172        -1.07394         0.84230
C          -0.39182        -0.86063         1.07969
C          -1.14072        -1.60342         1.90165
C           1.41288        -0.13107        -0.03073
C           0.27637         0.70714        -0.36952
C          -0.82537         0.29295         0.29035
C          -2.12168         0.90810         0.16611
C          -2.54236         2.29419         0.39954
C          -1.76799         3.27645         0.88033
C          -3.23106         0.26054        -0.24757
C          -4.35389         1.17750        -0.30138
C          -3.96800         2.41186         0.07849
C          -4.83674         3.56131         0.08155
C          -6.12436         3.78373         0.74798
C          -6.68656         2.97057         1.65247
C          -4.60351         4.68391        -0.63080
C          -5.70698         5.61269        -0.47584
C          -6.65015         5.08763         0.33056
C          -7.91137         5.72433         0.61801
C          -9.28075         5.24380         0.41034
C          -9.65981         4.08232        -0.13041
C          -8.04530         6.96201         1.14450
C          -9.45144         7.29266         1.29898
C         -10.19924         6.26779         0.86576
H           1.63347        -1.84124         1.28761
H          -0.71837        -2.43754         2.45119
H          -2.19438        -1.39570         2.05329
H           2.40668         0.00265        -0.42828
H           0.33214         1.53323        -1.06262
H          -0.72634         3.10818         1.13022
H          -2.15662         4.27344         1.05666
H          -3.29413        -0.77835        -0.53446
H          -5.33918         0.89125        -0.63753
H          -6.22095         2.03629         1.94636
H          -7.61986         3.22726         2.14248
H          -3.75425         4.86873        -1.27124
H          -5.76187         6.55880        -0.99318
H          -8.93477         3.35348        -0.47714
H         -10.70793         3.82933        -0.24990
H          -7.24377         7.62704         1.42845
H          -9.81467         8.22558         1.70108
H         -11.27511         6.21049         0.84522


--Link1--
%nproc=1
%mem=1GB
%Chk=9.chk
%NoSave
# Geom=AllCheck ZINDO(NStates=15,Singlets)
