%nproc=1
%mem=1GB
%Chk=9.chk
#T PM6 OPT

C(C1=C)=CC=C1C(C1=C)=CC=C1C(C1=C)=CC=C1C(C1=C)=CC=C1

0  1
C           1.02532        -1.07486         0.89107
C          -0.38387        -0.83977         1.13316
C          -1.13430        -1.55585         1.97778
C           1.42352        -0.14936         0.00242
C           0.29503         0.69606        -0.34481
C          -0.80936         0.30284         0.32352
C          -2.10080         0.92662         0.18944
C          -2.51098         2.31833         0.40866
C          -1.72269         3.30452         0.85624
C          -3.21576         0.28251        -0.21440
C          -4.33459         1.20486        -0.26616
C          -3.94027         2.43894         0.10408
C          -4.80873         3.58855         0.13323
C          -6.06739         3.81310         0.85239
C          -6.61137         2.98686         1.75556
C          -4.59745         4.71457        -0.57997
C          -5.68353         5.65316        -0.36720
C          -6.59377         5.12959         0.47667
C          -7.82670         5.77868         0.84559
C          -9.21164         5.32362         0.69693
C          -9.63412         4.19398         0.12038
C          -7.91238         6.99249         1.43352
C          -9.30262         7.32878         1.68931
C         -10.08809         6.33154         1.25721
H           1.62964        -1.84397         1.34294
H          -0.71626        -2.38259         2.54153
H          -2.18356        -1.33162         2.13499
H           2.41636        -0.03489        -0.40330
H           0.35693         1.51001        -1.05144
H          -0.67683         3.13543         1.08838
H          -2.10142         4.30756         1.01917
H          -3.28774        -0.75946        -0.48763
H          -5.32644         0.91909        -0.58289
H          -6.15144         2.03897         2.01216
H          -7.52602         3.24322         2.27979
H          -3.77037         4.90104        -1.24849
H          -5.74808         6.60865        -0.86583
H          -8.93704         3.47991        -0.30555
H         -10.68964         3.95491         0.04980
H          -7.08640         7.63203         1.70630
H          -9.62931         8.24267         2.16047
H         -11.16344         6.28238         1.30545


--Link1--
%nproc=1
%mem=1GB
%Chk=9.chk
%NoSave
# Geom=AllCheck ZINDO(NStates=15,Singlets)
